 # Tetragonal face-centered Ti.
  
        3456  atoms
           1  atom types
 
      0.000000000000      48.000000000000  xlo xhi
      0.000000000000      48.000000000000  ylo yhi
      0.000000000000      36.000000000000  zlo zhi
 
Masses
 
            1   47.86700000             # Ti
 
Atoms # atomic
 
         1    1       -0.018983935484      -0.018983935760      -0.019253071613
         2    1        1.977750619175       1.977750618691      -0.023542545479
         3    1       -0.021340452189       1.980200029564       2.980149357715
         4    1        1.980200030636      -0.021340452516       2.980149358224
         5    1        3.979753993271      -0.023628379660      -0.023229918882
         6    1        5.976538732736       1.972249320127      -0.028543673393
         7    1        3.976233260630       1.974218795639       2.975193195380
         8    1        5.978949131450      -0.026888233326       2.975940408671
         9    1        7.979658534793      -0.028501528997      -0.027270732522
        10    1        9.976993135784       1.966725247458      -0.033388203413
        11    1        7.975060410893       1.967410431447       2.969724769097
        12    1        9.979187218135      -0.032604480012       2.971775579629
        13    1       11.981219997049      -0.032827998830      -0.030667325280
        14    1       13.979645222146       1.962316888383      -0.036964882174
        15    1       11.976077330868       1.960765929251       2.964619167215
        16    1       13.981474607524      -0.037357391670       2.968559510667
        17    1       15.984574995759      -0.035528055746      -0.032460157854
        18    1       17.984375228927       1.960424766257      -0.037939949515
        19    1       15.979855774027       1.956001975442       2.961340076846
        20    1       17.985793300015      -0.039670447689       2.967435612859
        21    1       19.989213202758      -0.035583826820      -0.031777127032
        22    1       21.990132596738       1.962066600693      -0.035401905550
        23    1       19.985911241729       1.955034346940       2.961473927020
        24    1       21.991218695744      -0.038384010129       2.969254232685
        25    1       23.994010503049      -0.032598193140      -0.028341292211
        26    1       25.995288261809       1.967169770058      -0.029555181971
        27    1       23.992510906381       1.958837316179       2.965736628304
        28    1       25.996196202554      -0.033459389938       2.973940120183
        29    1       27.997735927271      -0.027143317228      -0.022770387897
        30    1       29.998534378508       1.974447525043      -0.021799725585
        31    1       27.997555196225       1.966552394694       2.973223517541
        32    1       29.999415617566      -0.026185072996       2.980361527926
        33    1       31.999702546478      -0.020535874876      -0.016335150578
        34    1       33.999577626395       1.982077420170      -0.013995022256
        35    1       31.999922744002       1.975871093515       2.981815148357
        36    1       34.000535719091      -0.018468003972       2.986941924646
        37    1       36.000020941640      -0.014175629650      -0.010326346364
        38    1       37.999044011508       1.988615090197      -0.007532461967
        39    1       35.999953820264       1.984440373495       2.989462256539
        40    1       38.000121866919      -0.011830177542       2.992476596286
        41    1       39.999317082851      -0.008973638215      -0.005538329932
        42    1       41.997853442029       1.993439564099      -0.002935330494
        43    1       39.998777786227       1.990965669610       2.995122106448
        44    1       41.999038659124      -0.006922846127       2.996492930717
        45    1       43.998269282214      -0.005211481203      -0.002171653780
        46    1       45.996697929004       1.996615061322      -0.000051619117
        47    1       43.997415219940       1.995291121469       2.998755657725
        48    1       45.997942407246      -0.003681666089       2.999091084190
        49    1       -0.023628379763       3.979753992731      -0.023229919491
        50    1        1.972249319906       5.976538731957      -0.028543674517
        51    1       -0.026888234805       5.978949130347       2.975940406502
        52    1        1.974218796247       3.976233258497       2.975193194200
        53    1        3.973981082597       3.973981081791      -0.028987389093
        54    1        5.969768451434       5.969768450219      -0.035824672693
        55    1        3.968795688725       5.971449594658       2.968615648649
        56    1        5.971449598722       3.968795687641       2.968615651332
        57    1        7.973028000636       3.967594358717      -0.035191988022
        58    1        9.969435891302       5.962602928243      -0.043298872341
        59    1        7.965833027734       5.962324703131       2.959911385634
        60    1        9.970640588863       3.960589606181       2.961577270653
        61    1       11.974418590727       3.961602338585      -0.040753608106
        62    1       13.972292079817       5.956569456134      -0.049167453100
        63    1       11.965922503039       5.952777531568       2.951103287210
        64    1       13.973007303428       3.953248202976       2.955619202124
        65    1       15.978593974524       3.957604806760      -0.043982821110
        66    1       17.978401802966       5.953753350080      -0.051023289407
        67    1       15.970453080970       5.945398565595       2.944858847384
        68    1       17.978892171248       3.949252076790       2.953031091475
        69    1       19.984900516578       3.957248686711      -0.043192420707
        70    1       21.986203741443       5.955776355350      -0.047102160820
        71    1       19.979005985688       5.943457070025       2.944485675776
        72    1       21.986882893199       3.950771109209       2.955737524632
        73    1       23.991531613811       3.961241303596      -0.037778980813
        74    1       25.993066304805       5.962564178983      -0.037773107772
        75    1       23.988658604717       5.948781478832       2.951654761526
        76    1       25.994194236716       3.957998371734       2.963703161142
        77    1       27.996456022845       3.968685229051      -0.028916192318
        78    1       29.996959907915       5.972122585450      -0.025704252572
        79    1       27.995681751617       5.959939701354       2.964483999007
        80    1       29.998506645884       3.968655964990       2.974534590005
        81    1       31.998662409794       3.977484826490      -0.019015079175
        82    1       33.997675538738       5.981727769515      -0.014245674352
        83    1       31.998329601089       5.972987399158       2.978553396383
        84    1       33.999467275617       3.979460635284       2.985026936781
        85    1       35.998552608895       3.985542239851      -0.010339079075
        86    1       37.996463619694       5.989436617505      -0.005563850146
        87    1       35.997620055553       5.984206076500       2.990024946033
        88    1       37.998353025167       3.988091395043       2.993081667496
        89    1       39.997278877699       3.991688701037      -0.004020768067
        90    1       41.994796536677       5.994662848273      -0.000096020952
        91    1       39.995681870892       5.991982589495       2.997515205979
        92    1       41.996693247131       3.993894697099       2.998259650184
        93    1       43.995875669005       3.995770364817      -0.000069922802
        94    1       45.993555478113       5.997769281991       0.002801881360
        95    1       43.994032026920       5.996576681204       3.001582305898
        96    1       45.995394810644       3.997325955611       3.001131193834
        97    1       -0.028501529822       7.979658535049      -0.027270733397
        98    1        1.966725246270       9.976993136683      -0.033388204385
        99    1       -0.032604482468       9.979187220876       2.971775578740
       100    1        1.967410428396       7.975060409644       2.969724764727
       101    1        3.967594358292       7.973027999728      -0.035191989892
       102    1        5.962602927525       9.969435890699      -0.043298874886
       103    1        3.960589600433       9.970640588802       2.961577262888
       104    1        5.962324704906       7.965833020690       2.959911379895
       105    1        7.965317117272       7.965317115755      -0.044197783067
       106    1        9.961059094682       9.961059093446      -0.053956005413
       107    1        7.954946458321       9.959566842630       2.948595043151
       108    1        9.959566852666       7.954946455925       2.948595053868
       109    1       11.966167218064       7.957717298402      -0.052699553075
       110    1       13.963839473682       9.953704630413      -0.062610038755
       111    1       11.953218973065       9.947230016694       2.934529194327
       112    1       13.961447690181       7.944536953751       2.938253104788
       113    1       15.971097085754       7.952391922102      -0.057876603578
       114    1       17.971307280057       9.950126524556      -0.065241609914
       115    1       15.958144822379       9.937139411193       2.923966322774
       116    1       17.969091450193       7.938416889612       2.933254717339
       117    1       19.979309163234       7.951739048736      -0.056694329004
       118    1       21.981210491652       9.952546334439      -0.058849926511
       119    1       19.969550611290       9.934200087424       2.923249785041
       120    1       21.980421499709       7.940216584917       2.937630804680
       121    1       23.988013499615       7.956830818797      -0.048057934862
       122    1       25.989596019411       9.960833655569      -0.044288822147
       123    1       23.982730098139       9.941239292923       2.935609503666
       124    1       25.990659346733       7.950328316760       2.951339139219
       125    1       27.994066486419       7.966334645708      -0.034214856528
       126    1       29.993654574250       9.972232908517      -0.026392870516
       127    1       27.991637157485       9.956015122821       2.957032470019
       128    1       29.995980492102       7.965001629556       2.969362957354
       129    1       31.996155581561       7.977205316709      -0.019542656608
       130    1       33.993560663174       9.983156395968      -0.010711092302
       131    1       31.993981444899       9.972594723904       2.978888425050
       132    1       33.996312440141       7.979070503906       2.985475325944
       133    1       35.995282867247       7.986598933562      -0.007734987383
       134    1       37.991523275379       9.991314446394      -0.000185840457
       135    1       35.992125817994       9.985817083314       2.994696310352
       136    1       37.994233804820       7.989363395610       2.996389352511
       137    1       39.993377866974       7.993209366948      -0.000133254113
       138    1       41.989625057712       9.996336639305       0.005313503154
       139    1       39.989605761161       9.994035721765       3.003283874921
       140    1       41.992165261093       7.995529431047       3.002259499263
       141    1       43.991836876675       7.997174826423       0.003838850392
       142    1       45.988759045554       9.998977406065       0.007378425192
       143    1       43.988277314770       9.998248613093       3.006720825311
       144    1       45.991106255486       7.998694024538       3.004736456297
       145    1       -0.032827998962      11.981219998440      -0.030667324229
       146    1        1.962316888865      13.979645223501      -0.036964879569
       147    1       -0.037357388604      13.981474610758       2.968559516875
       148    1        1.960765926381      11.976077337269       2.964619168371
       149    1        3.961602337213      11.974418592628      -0.040753608376
       150    1        5.956569455117      13.972292082216      -0.049167451186
       151    1        3.953248201926      13.973007314244       2.955619210743
       152    1        5.952777522372      11.965922507679       2.951103276903
       153    1        7.957717297345      11.966167218463      -0.052699555259
       154    1        9.953704629050      13.963839475091      -0.062610038365
       155    1        7.944536942763      13.961447703366       2.938253100314
       156    1        9.947230018423      11.953218963949       2.934529179409
       157    1       11.957711127867      11.957711127983      -0.064305631176
       158    1       13.956194878957      13.956194880958      -0.073369168558
       159    1       11.940428687609      13.947923002961       2.918656817189
       160    1       13.947923002772      11.940428690564       2.918656826116
       161    1       15.963169786274      11.951606855623      -0.071216267681
       162    1       17.964625524022      13.952404003931      -0.075480996153
       163    1       15.945280758680      13.936481614716       2.904138770703
       164    1       17.957134298918      11.932621802190       2.911134563227
       165    1       19.973075373843      11.950824472254      -0.068603802689
       166    1       21.975848254668      13.954935948376      -0.064794647809
       167    1       19.958989920702      13.933108695759       2.905173382585
       168    1       21.971809195084      11.934796581621       2.919165866622
       169    1       23.983403083751      11.956664973803      -0.055013792155
       170    1       25.984597921927      13.963569929823      -0.043437528476
       171    1       23.974545131079      13.941095021149       2.926129680610
       172    1       25.984541485154      11.947360570230       2.941995103068
       173    1       27.989842329922      11.967391987302      -0.034610720320
       174    1       29.987690702029      13.975193675886      -0.019297441884
       175    1       27.983772893035      13.957559540699       2.958830537437
       176    1       29.989998242241      11.965094100833       2.969901840017
       177    1       31.991086534170      11.979235371421      -0.014598327518
       178    1       33.986182953150      13.985896383029      -0.000353026044
       179    1       31.984653389649      13.975414806894       2.988814650557
       180    1       33.989047464361      11.981162830548       2.992220262190
       181    1       35.989140286217      11.988889364654      -0.000258197129
       182    1       37.983445633040      13.993388103900       0.010235178773
       183    1       35.981564384547      13.988738597183       3.007078664056
       184    1       37.986134138577      11.991873407900       3.004824692712
       185    1       39.986835371784      11.995131678999       0.007389077455
       186    1       41.981953016520      13.997594019661       0.013969058219
       187    1       39.979389771355      13.996161188528       3.014126205739
       188    1       41.984451267426      11.997492199343       3.009695511314
       189    1       43.985723465322      11.998477140181       0.010132722785
       190    1       45.982226861954      13.999550989917       0.013849125122
       191    1       43.979666701453      13.999413039617       3.014772507823
       192    1       45.984601965212      11.999901629908       3.010387863445
       193    1       -0.035528054459      15.984574994746      -0.032460155937
       194    1        1.960424767354      17.984375225801      -0.037939949233
       195    1       -0.039670444798      17.985793292395       2.967435613984
       196    1        1.956001982380      15.979855773412       2.961340088393
       197    1        3.957604808116      15.978593974083      -0.043982817184
       198    1        5.953753351885      17.978401798953      -0.051023287643
       199    1        3.949252085604      17.978892157515       2.953031101026
       200    1        5.945398570341      15.970453088973       2.944858870161
       201    1        7.952391922131      15.971097086176      -0.057876599057
       202    1        9.950126525988      17.971307276135      -0.065241606810
       203    1        7.938416900983      17.969091435370       2.933254742747
       204    1        9.937139403943      15.958144836264       2.923966340191
       205    1       11.951606854175      15.963169786753      -0.071216263706
       206    1       13.952404003156      17.964625521946      -0.075480992121
       207    1       11.932621804710      17.957134286484       2.911134594971
       208    1       13.936481602302      15.945280768329       2.904138783463
       209    1       15.957279424939      15.957279427426      -0.077968796554
       210    1       17.960970596580      17.960970597714      -0.074228845930
       211    1       15.937232333431      17.946555497809       2.897067092405
       212    1       17.946555495552      15.937232349166       2.897067068414
       213    1       19.967908226099      15.956375331816      -0.071720189098
       214    1       21.971677480932      17.962549290934      -0.057243021691
       215    1       19.951281010428      17.942826234604       2.904847299945
       216    1       21.962712628088      15.939250025907       2.912631302784
       217    1       23.978252477672      15.961733227421      -0.051518987282
       218    1       25.978574295855      17.969323021984      -0.029010225458
       219    1       23.965605718503      17.949029452554       2.937262279684
       220    1       25.975285751944      15.951630115524       2.947138786424
       221    1       27.983394915928      15.971641881883      -0.024366216918
       222    1       29.979047933494      17.978762781338      -0.000592055086
       223    1       27.971756773021      17.962947636821       2.980164207041
       224    1       29.978768190621      15.969009518793       2.984602956711
       225    1       31.982725687124      15.982422873245      -0.000467946331
       226    1       33.975568504792      17.987516008278       0.018450069285
       227    1       31.969531466098      17.978412815989       3.014014441728
       228    1       33.975894387416      15.984301777726       3.010179433783
       229    1       35.979574882040      15.990902761734       0.013953773785
       230    1       37.972554446221      17.993584836337       0.025910082331
       231    1       35.965582473678      17.989830456695       3.029308392277
       232    1       37.972999149686      15.993813221231       3.020545466709
       233    1       39.977479102174      15.996074359062       0.019174301845
       234    1       41.972333314649      17.996956147650       0.025476627411
       235    1       39.965317326551      17.995944988278       3.030285457355
       236    1       41.973245932396      15.998279564931       3.021179334541
       237    1       43.977664318752      15.998643743071       0.018831376965
       238    1       45.974560820127      17.998559539269       0.021710140409
       239    1       43.968814127654      17.998530146380       3.025338447401
       240    1       45.976009736343      15.999926856434       3.018072589404
       241    1       -0.035583827549      19.989213200806      -0.031777129904
       242    1        1.962066599100      21.990132597713      -0.035401910850
       243    1       -0.038384016860      21.991218695780       2.969254220594
       244    1        1.955034344248      19.985911229405       2.961473915764
       245    1        3.957248686631      19.984900513119      -0.043192425423
       246    1        5.955776354533      21.986203743752      -0.047102168962
       247    1        3.950771098594      21.986882893941       2.955737494206
       248    1        5.943457072102      19.979005960018       2.944485656872
       249    1        7.951739050272      19.979309158877      -0.056694334558
       250    1        9.952546335564      21.981210494983      -0.058849934479
       251    1        7.940216578736      21.980421505771       2.937630749462
       252    1        9.934200099698      19.969550576565       2.923249764869
       253    1       11.950824474855      19.973075369702      -0.068603805791
       254    1       13.954935950194      21.975848256024      -0.064794651391
       255    1       11.934796591820      21.971809208169       2.919165810451
       256    1       13.933108709882      19.958989889620       2.905173380637
       257    1       15.956375332182      19.967908224144      -0.071720188336
       258    1       17.962549291247      21.971677480784      -0.057243021894
       259    1       15.939250038047      21.962712628876       2.912631285146
       260    1       17.942826229393      19.951281005634       2.904847308143
       261    1       19.966073066153      19.966073066289      -0.059314735829
       262    1       21.970500327569      21.970500327570      -0.033481161375
       263    1       19.950779282537      21.956741590507       2.931619904519
       264    1       21.956741591179      19.950779282417       2.931619904396
       265    1       23.973975784485      19.968860816940      -0.032294431106
       266    1       25.973228404858      21.973104234508      -0.000786078054
       267    1       23.959490040833      21.957277985776       2.974328526288
       268    1       25.964778136696      19.958616915069       2.976440120033
       269    1       27.975664939886      19.975440368893      -0.000705748794
       270    1       29.969667099159      21.978513088558       0.027744685045
       271    1       27.959007074482      21.964614025832       3.021445971830
       272    1       29.963444360715      19.971461480728       3.018055885669
       273    1       31.972022002205      19.983259577275       0.023300626066
       274    1       33.963947115168      21.984604702171       0.042680861839
       275    1       31.952187039116      21.975226793142       3.051510585988
       276    1       33.958107879988      19.983637374954       3.040107348950
       277    1       35.967751664406      19.989800596483       0.033994641104
       278    1       37.961097197861      21.989647958017       0.043963989578
       279    1       35.947773762629      21.984580666558       3.057439590363
       280    1       37.956385807346      19.991630510805       3.042515096676
       281    1       39.966574715209      19.994086126856       0.033939142823
       282    1       41.962688998566      21.993133105556       0.037691863800
       283    1       39.950506595440      21.990742062863       3.048540602269
       284    1       41.960111964386      19.995732393233       3.035383894583
       285    1       43.968806521555      19.996500476631       0.028825698167
       286    1       45.967199833911      21.995350512134       0.029573141544
       287    1       43.958022562925      21.994276651679       3.036334968275
       288    1       45.966602570125      19.997615288521       3.026766249188
       289    1       -0.032598193847      23.994010506156      -0.028341293882
       290    1        1.967169771356      25.995288265889      -0.029555178106
       291    1       -0.033459386927      25.996196212841       2.973940124722
       292    1        1.958837311338      23.992510921508       2.965736618511
       293    1        3.961241303142      23.991531620049      -0.037778982401
       294    1        5.962564179902      25.993066309248      -0.037773098324
       295    1        3.957998380748      25.994194258536       2.963703183474
       296    1        5.948781474913      23.988658641809       2.951654749009
       297    1        7.956830818511      23.988013508418      -0.048057934058
       298    1        9.960833653266      25.989596019834      -0.044288810802
       299    1        7.950328324953      25.990659370249       2.951339204851
       300    1        9.941239290964      23.982730157359       2.935609508087
       301    1       11.956664972714      23.983403090072      -0.055013789616
       302    1       13.963569927337      25.984597919345      -0.043437525031
       303    1       11.947360551873      25.984541473803       2.941995178443
       304    1       13.941095013226      23.974545169012       2.926129697019
       305    1       15.961733226834      23.978252478937      -0.051518986631
       306    1       17.969323021985      25.978574295438      -0.029010225562
       307    1       15.951630104973      25.975285732214       2.947138794958
       308    1       17.949029450538      23.965605722164       2.937262281458
       309    1       19.968860816929      23.973975784500      -0.032294431101
       310    1       21.973104234507      25.973228404859      -0.000786078054
       311    1       19.958616915662      25.964778136474       2.976440119643
       312    1       21.957277985775      23.959490040835       2.974328526288
       313    1       23.972298452948      23.972298452948      -0.000815081107
       314    1       25.970658854095      25.970658854096       0.032022722860
       315    1       23.959509517616      25.957496565362       3.023367793911
       316    1       25.957496565361      23.959509517617       3.023367793911
       317    1       27.969126944625      23.974017873077       0.030887250993
       318    1       29.962868083520      25.971837230749       0.056267374048
       319    1       27.951154055357      25.956959945714       3.066638013971
       320    1       29.949526441280      23.965669569848       3.061139573595
       321    1       31.962097810697      23.978328399046       0.050634308878
       322    1       33.955212149124      25.975985717412       0.064383978153
       323    1       31.939663079749      25.962896185608       3.086585920552
       324    1       33.941525957846      23.974648092480       3.073189191645
       325    1       35.956941846078      23.983495116559       0.054642560878
       326    1       37.952667974406      25.981317461274       0.058821618457
       327    1       35.934970135412      25.971946200122       3.080790309510
       328    1       37.941416476772      23.982843613982       3.064302160113
       329    1       39.956955022279      23.988102460268       0.047998175220
       330    1       41.955763569152      25.986282989813       0.047229940932
       331    1       39.940156284820      25.980518951073       3.062605862302
       332    1       41.948766240027      23.988756939569       3.048465343044
       333    1       43.961251538418      23.991606278172       0.037842965362
       334    1       45.961986654917      25.990190310273       0.035552660338
       335    1       43.950612809437      25.986951879068       3.044510799254
       336    1       45.958745213899      23.992585755166       3.034404537241
       337    1       -0.027143315493      27.997735927931      -0.022770383533
       338    1        1.974447525312      29.998534374552      -0.021799721516
       339    1       -0.026185068219      29.999415611886       2.980361538283
       340    1        1.966552404797      27.997555197439       2.973223539138
       341    1        3.968685230344      27.996456021000      -0.028916183531
       342    1        5.972122582737      29.996959899248      -0.025704252468
       343    1        3.968655964381      29.998506622290       2.974534605258
       344    1        5.959939709608      27.995681733321       2.964484048463
       345    1        7.966334643539      27.994066478622      -0.034214848233
       346    1        9.972232907183      29.993654567283      -0.026392881776
       347    1        7.965001608163      29.995980442677       2.969362933166
       348    1        9.956015105059      27.991637093568       2.957032502942
       349    1       11.967391985266      27.989842321288      -0.034610722421
       350    1       13.975193680833      29.987690705367      -0.019297448065
       351    1       11.965094107988      29.989998231813       2.969901742028
       352    1       13.957559540628      27.983772847371       2.958830491372
       353    1       15.971641883646      27.983394915287      -0.024366219466
       354    1       17.978762780353      29.979047934701      -0.000592053158
       355    1       15.969009546153      29.978768234037       2.984602965110
       356    1       17.962947646284      27.971756781699       2.980164203277
       357    1       19.975440368782      27.975664940026      -0.000705748668
       358    1       21.978513088939      29.969667099107       0.027744684906
       359    1       19.971461471041      29.963444352185       3.018055883765
       360    1       21.964614025889      27.959007073880       3.021445971487
       361    1       23.974017873066      27.969126944636       0.030887250998
       362    1       25.971837230855      29.962868083233       0.056267373858
       363    1       23.965669566842      29.949526443463       3.061139575527
       364    1       25.956959946265      27.951154055220       3.066638014044
       365    1       27.966319030658      27.966319030775       0.058306012980
       366    1       29.961197704824      29.961197705886       0.073781012290
       367    1       27.951554819016      29.943183183814       3.094308294837
       368    1       29.943183179126      27.951554814314       3.094308287430
       369    1       31.956634610359      27.968092585380       0.071282232285
       370    1       33.952524497520      29.964748017208       0.075512536813
       371    1       31.937399925963      29.946717216122       3.102953285228
       372    1       33.933279435779      27.959142043673       3.094823675835
       373    1       35.950944422225      27.973193522449       0.068609353878
       374    1       37.950085266877      29.971357667467       0.065519299742
       375    1       35.932516989466      29.957158285871       3.089360970081
       376    1       37.934104615904      27.969622633546       3.077122736480
       377    1       39.951706541163      27.979380700456       0.056897814739
       378    1       41.953606236712      29.978419255644       0.051341162133
       379    1       39.938134000640      29.969068291602       3.067289385430
       380    1       41.943228776743      27.979044171806       3.055902641477
       381    1       43.957131984033      27.984945888637       0.043421908978
       382    1       45.960246361329      29.984382635042       0.038204055400
       383    1       43.948941196736      29.978869868003       3.047384236062
       384    1       45.954797354991      27.985937355423       3.038815028701
       385    1       -0.020535875524      31.999702543444      -0.016335149894
       386    1        1.982077417802      33.999577624767      -0.013995026475
       387    1       -0.018468008764      34.000535714139       2.986941920404
       388    1        1.975871088366      31.999922730691       2.981815147182
       389    1        3.977484823541      31.998662404826      -0.019015083334
       390    1        5.981727768854      33.997675541395      -0.014245684131
       391    1        3.979460623543      33.999467275267       2.985026913458
       392    1        5.972987380203      31.998329583973       2.978553361160
       393    1        7.977205315606      31.996155580563      -0.019542670084
       394    1        9.983156402658      33.993560672703      -0.010711094014
       395    1        7.979070510783      33.996312471613       2.985475285036
       396    1        9.972594731070      31.993981472143       2.978888344190
       397    1       11.979235378234      31.991086542720      -0.014598333026
       398    1       13.985896381374      33.986182955569      -0.000353012135
       399    1       11.981162871714      33.989047510001       2.992220317860
       400    1       13.975414847697      31.984653452549       2.988814692421
       401    1       15.982422871062      31.982725689876      -0.000467938618
       402    1       17.987516004372      33.975568499750       0.018450063800
       403    1       15.984301717376      33.975894349615       3.010179484700
       404    1       17.978412772440      31.969531441545       3.014014456897
       405    1       19.983259577580      31.972022000338       0.023300623623
       406    1       21.984604705043      33.963947117530       0.042680864868
       407    1       19.983637416464      33.958107876933       3.040107298403
       408    1       21.975226813515      31.952187048157       3.051510591560
       409    1       23.978328397937      31.962097811335       0.050634309592
       410    1       25.975985715861      33.955212147421       0.064383974786
       411    1       23.974648056823      33.941525967029       3.073189211321
       412    1       25.962896183431      31.939663068333       3.086585903847
       413    1       27.968092587242      31.956634609961       0.071282232923
       414    1       29.964748019370      33.952524498238       0.075512540719
       415    1       27.959142074130      33.933279421244       3.094823671783
       416    1       29.946717214493      31.937399941436       3.102953308906
       417    1       31.957401665611      31.957401668063       0.078010055282
       418    1       33.956183438211      33.956183440283       0.073722078114
       419    1       31.945247213972      33.936399732149       3.096430219829
       420    1       33.936399719291      31.945247223704       3.096430205952
       421    1       35.951572850487      31.963189674338       0.071548865814
       422    1       37.953551289305      33.963763973052       0.063072520039
       423    1       35.940156807211      33.947722122409       3.082108196683
       424    1       37.936838212272      31.958035573590       3.076716282195
       425    1       39.952230333561      31.971071966084       0.058278223699
       426    1       41.956341873587      33.972209266196       0.049587877746
       427    1       39.944149016833      33.961253507365       3.062413673973
       428    1       41.945030953769      31.970354600343       3.055691270291
       429    1       43.957393299627      31.978562509480       0.044328324888
       430    1       45.962082914773      33.979580168049       0.037288661210
       431    1       43.952872279284      33.972868159398       3.044860108514
       432    1       45.955674250861      31.979791144706       3.039037453198
       433    1       -0.014175631148      36.000020941616      -0.010326349186
       434    1        1.988615090372      37.999044013827      -0.007532464398
       435    1       -0.011830179805      38.000121869921       2.992476591368
       436    1        1.984440367851      35.999953823857       2.989462245010
       437    1        3.985542239715      35.998552612058      -0.010339084417
       438    1        5.989436621234      37.996463623679      -0.005563848334
       439    1        3.988091399278      37.998353035528       2.993081663180
       440    1        5.984206082432      35.997620075985       2.990024930909
       441    1        7.986598938929      35.995282874238      -0.007734986325
       442    1        9.991314447841      37.991523274394      -0.000185828666
       443    1        7.989363414468      37.994233811749       2.996389377610
       444    1        9.985817114241      35.992125839144       2.994696353514
       445    1       11.988889364832      35.989140286718      -0.000258182041
       446    1       13.993388094340      37.983445626213       0.010235178205
       447    1       11.991873389410      37.986134108544       3.004824739390
       448    1       13.988738555083      35.981564345250       3.007078726454
       449    1       15.990902752814      35.979574875112       0.013953769470
       450    1       17.993584842628      37.972554447196       0.025910070405
       451    1       15.993813189610      37.972999139290       3.020545388585
       452    1       17.989830460498      35.965582462873       3.029308293890
       453    1       19.989800604942      35.967751666153       0.033994638113
       454    1       21.989647958319      37.961097200317       0.043964000866
       455    1       19.991630577065      37.956385826303       3.042515122602
       456    1       21.984580683492      35.947773782040       3.057439663564
       457    1       23.983495110514      35.956941847329       0.054642563910
       458    1       25.981317457516      37.952667973324       0.058821610759
       459    1       23.982843554548      37.941416478741       3.064302170186
       460    1       25.971946183631      35.934970125513       3.080790254640
       461    1       27.973193526392      35.950944419596       0.068609350528
       462    1       29.971357671563      37.950085265377       0.065519302610
       463    1       27.969622667814      37.934104603693       3.077122713147
       464    1       29.957158300016      35.932516986380       3.089361001350
       465    1       31.963189673971      35.951572851925       0.071548869909
       466    1       33.963763971627      37.953551290680       0.063072520605
       467    1       31.958035560286      37.936838219170       3.076716300882
       468    1       33.947722121615      35.940156810537       3.082108188491
       469    1       35.957588921429      35.957588921634       0.064790455465
       470    1       37.960870730860      37.960870729662       0.054449348254
       471    1       35.952929180906      37.946869400646       3.066206014430
       472    1       37.946869402268      35.952929172032       3.066206029394
       473    1       39.957497237486      35.966028304799       0.053173440231
       474    1       41.962361215811      37.969267471465       0.043723751146
       475    1       39.954576815163      37.959257370462       3.052019039924
       476    1       41.952384782317      35.965696263876       3.049461524174
       477    1       43.961353945577      35.974302823100       0.041136838174
       478    1       45.966484940964      37.976865216736       0.033713400884
       479    1       43.960234911167      37.970418026923       3.038869880675
       480    1       45.960422898036      35.975926183511       3.035769496579
       481    1       -0.008973637955      39.999317084236      -0.005538330903
       482    1        1.993439565457      41.997853442871      -0.002935329511
       483    1       -0.006922844657      41.999038661070       2.996492930758
       484    1        1.990965672222      39.998777790863       2.995122105615
       485    1        3.991688703370      39.997278879633      -0.004020766562
       486    1        5.994662849567      41.994796535522      -0.000096016770
       487    1        3.993894702105      41.996693247037       2.998259655947
       488    1        5.991982599577      39.995681872333       2.997515218482
       489    1        7.993209368600      39.993377865588      -0.000133246628
       490    1        9.996336635479      41.989625053906       0.005313505396
       491    1        7.995529430314      41.992165251177       3.002259512344
       492    1        9.994035716319      39.989605742691       3.003283901522
       493    1       11.995131672153      39.986835366298       0.007389079292
       494    1       13.997594016569      41.981953016879       0.013969048566
       495    1       11.997492178572      41.984451260303       3.009695497799
       496    1       13.996161155394      39.979389762292       3.014126167532
       497    1       15.996074359365      39.977479102914       0.019174288210
       498    1       17.996956156353      41.972333317520       0.025476626734
       499    1       15.998279580174      41.973245951394       3.021179296919
       500    1       17.995945036439      39.965317348681       3.030285427664
       501    1       19.994086135152      39.966574717561       0.033939150398
       502    1       21.993133101547      41.962688997685       0.037691873693
       503    1       19.995732414347      41.960111957222       3.035383943271
       504    1       21.990742042827      39.950506587572       3.048540670870
       505    1       23.988102451448      39.956955022572       0.047998176746
       506    1       25.986282987090      41.955763569959       0.047229932877
       507    1       23.988756901064      41.948766243113       3.048465333348
       508    1       25.980518941995      39.940156291032       3.062605806909
       509    1       27.979380704615      39.951706539644       0.056897808822
       510    1       29.978419259812      41.953606234908       0.051341163643
       511    1       27.979044197337      41.943228775197       3.055902620453
       512    1       29.969068307941      39.938133989073       3.067289409941
       513    1       31.971071965843      39.952230333468       0.058278228286
       514    1       33.972209263819      41.956341874568       0.049587879798
       515    1       31.970354592916      41.945030948666       3.055691293742
       516    1       33.961253493795      39.944149027794       3.062413670179
       517    1       35.966028304340      39.957497238559       0.053173438114
       518    1       37.969267472036      41.962361216545       0.043723748583
       519    1       35.965696258889      41.952384791666       3.049461513868
       520    1       37.959257380589      39.954576812753       3.052019028941
       521    1       39.965103734044      39.965103732523       0.044637679522
       522    1       41.969557817096      41.969557815861       0.036191116375
       523    1       39.965544400442      41.961988830728       3.040568877919
       524    1       41.961988832539      39.965544393237       3.040568883855
       525    1       43.967360049472      39.972855039143       0.035547572101
       526    1       45.972037209247      41.976375864340       0.028830727159
       527    1       43.968508984697      41.971198588257       3.031749322541
       528    1       45.967108673566      39.974859429149       3.030618581645
       529    1       -0.005211480447      43.998269282552      -0.002171653208
       530    1        1.996615061828      45.996697928530      -0.000051618034
       531    1       -0.003681664951      45.997942406983       2.999091085332
       532    1        1.995291123869      43.997415219607       2.998755660297
       533    1        3.995770365666      43.995875668225      -0.000069920631
       534    1        5.997769281216      45.993555476735       0.002801882439
       535    1        3.997325956077      45.995394808277       3.001131196484
       536    1        5.996576681611      43.994032021986       3.001582311874
       537    1        7.997174824603      43.991836874300       0.003838852107
       538    1        9.998977403678      45.988759045255       0.007378422886
       539    1        7.998694019992      45.991106252633       3.004736455792
       540    1        9.998248602777      43.988277309975       3.006720821761
       541    1       11.998477136821      43.985723465250       0.010132717616
       542    1       13.999550991357      45.982226864326       0.013849120690
       543    1       11.999901625794      45.984601970599       3.010387851843
       544    1       13.999413038805      43.979666712932       3.014772483842
       545    1       15.998643747849      43.977664321775       0.018831372320
       546    1       17.998559543434      45.974560820015       0.021710144255
       547    1       15.999926869708      45.976009742108       3.018072587188
       548    1       17.998530170889      43.968814129341       3.025338461038
       549    1       19.996500478909      43.968806520391       0.028825706929
       550    1       21.995350508158      45.967199832525       0.029573145756
       551    1       19.997615288312      45.966602559980       3.026766271396
       552    1       21.994276630546      43.958022553239       3.036334992758
       553    1       23.991606271758      43.961251538768       0.037842964201
       554    1       25.990190309060      45.961986656511       0.035552655017
       555    1       23.992585739208      45.958745218310       3.034404528213
       556    1       25.986951876923      43.950612820219       3.044510768300
       557    1       27.984945891980      43.957131984178       0.043421903979
       558    1       29.984382638262      45.960246360268       0.038204055517
       559    1       27.985937367708      45.954797358095       3.038815016531
       560    1       29.978869882561      43.948941188011       3.047384244996
       561    1       31.978562510066      43.957393298233       0.044328328823
       562    1       33.979580166731      45.962082914253       0.037288663900
       563    1       31.979791145717      45.955674243736       3.039037464943
       564    1       33.972868148445      43.952872280151       3.044860117689
       565    1       35.974302821151      43.961353946946       0.041136837972
       566    1       37.976865215795      45.966484942168       0.033713399920
       567    1       35.975926176889      45.960422900888       3.035769497935
       568    1       37.970418026857      43.960234917073       3.038869872735
       569    1       39.972855040050      43.967360049909       0.035547570192
       570    1       41.976375865130      45.972037209476       0.028830726004
       571    1       39.974859430385      45.967108676720       3.030618577136
       572    1       41.971198592442      43.968508983585       3.031749319753
       573    1       43.973788054405      43.973788053581       0.029282038170
       574    1       45.977581096706      45.977581096209       0.023775517414
       575    1       43.976022888817      45.973981889696       3.025081717428
       576    1       45.973981890322      43.976022886614       3.025081718657
       577    1       -0.017591984101      -0.017591985104       5.984012406761
       578    1        1.978291598456       1.978291596125       5.979957282871
       579    1       -0.017421478099       1.983854393531       8.984698116154
       580    1        1.983854396825      -0.017421478785       8.984698117232
       581    1        3.980332707197      -0.023024974413       5.980250577749
       582    1        5.975768818869       1.971219968003       5.974826455616
       583    1        3.979535034373       1.977767330125       8.980623423263
       584    1        5.982013701954      -0.023077640727       8.981240275071
       585    1        7.979267024871      -0.029294736078       5.976101761592
       586    1        9.974860047665       1.963224882082       5.969266164026
       587    1        7.977243057629       1.970080967102       8.975786621733
       588    1        9.981363133034      -0.029499876326       8.977576174150
       589    1       11.980020081945      -0.035544466438       5.972194161552
       590    1       13.976704231403       1.955797856873       5.964411076098
       591    1       11.976908422623       1.961577054343       8.970775521380
       592    1       13.982745208858      -0.035536931452       8.974435242939
       593    1       15.983137085886      -0.040212417287       5.969601466800
       594    1       17.981758463266       1.951379205698       5.962041075422
       595    1       15.979726199999       1.954334248901       8.966933052075
       596    1       17.986526188244      -0.039264302359       8.972935729769
       597    1       19.988287096135      -0.041467568743       5.969529482570
       598    1       21.988902290693       1.952285327525       5.963773334708
       599    1       19.985759323586       1.951417461232       8.966120333040
       600    1       21.991922269784      -0.038791718449       8.974098894928
       601    1       23.994027048617      -0.038281755602       5.972582760485
       602    1       25.995629138369       1.958930937790       5.969747718690
       603    1       23.993068067002       1.955000588282       8.969540897335
       604    1       25.997086940306      -0.033691100476       8.978042611770
       605    1       27.998515386750      -0.031354214244       5.978157035761
       606    1       29.999722959659       1.969141182348       5.978172735404
       607    1       27.998712541470       1.964204898346       8.976441257202
       608    1       30.000326667107      -0.025623869676       8.983671104825
       609    1       32.000712335974      -0.022817486215       5.984691661577
       610    1       34.000759810910       1.979616734345       5.986511954656
       611    1       32.001094278115       1.975458338519       8.984433643391
       612    1       34.001255151333      -0.017215273121       8.989376249119
       613    1       36.000856227447      -0.014892555585       5.990629479190
       614    1       37.999853067078       1.988016748930       5.993058868249
       615    1       36.000823198038       1.985264951166       8.991288554630
       616    1       38.000653545562      -0.010371629989       8.994019664920
       617    1       39.999897190043      -0.008813319546       5.995142741814
       618    1       41.998375044233       1.993686816197       5.997408769549
       619    1       39.999451694567       1.992126020432       8.996096096753
       620    1       41.999538092998      -0.005668255759       8.997264457753
       621    1       43.998714342500      -0.004745515427       5.998152510218
       622    1       45.997151338246       1.997068729401       5.999956021051
       623    1       43.998122937342       1.996256261424       8.999027610453
       624    1       45.998549581588      -0.002797115897       8.999299233326
       625    1       -0.023024975390       3.980332704108       5.980250575407
       626    1        1.971219965207       5.975768812123       5.974826449399
       627    1       -0.023077647720       5.982013696313       8.981240269002
       628    1        1.977767331602       3.979535025503       8.980623419925
       629    1        3.972969027775       3.972969022258       5.974378240439
       630    1        5.966097945718       5.966097932650       5.966576232858
       631    1        3.971158761997       5.973664640740       8.974806834689
       632    1        5.973664665724       3.971158758977       8.974806845727
       633    1        7.969993347722       3.963746725997       5.967280926670
       634    1        9.962819394732       5.954155113786       5.956690475828
       635    1        7.965601713503       5.961963818116       8.966239801140
       636    1        9.970893606335       3.960597303492       8.967865355510
       637    1       11.969636076228       3.953699061959       5.959852532188
       638    1       13.963802022854       5.941971591074       5.947010229854
       639    1       11.962501456668       5.947403561499       8.956060083873
       640    1       13.971416047458       3.949447893259       8.960981203925
       641    1       15.973393736537       3.945401064150       5.954175426664
       642    1       17.970688667251       5.933839109383       5.941321662824
       643    1       15.965010148694       5.933294768214       8.946791175396
       644    1       17.976767051155       3.941465520419       8.956698215978
       645    1       19.981198513740       3.942459002679       5.953090828753
       646    1       21.981926819485       5.934487339385       5.943711486385
       647    1       19.974562638034       5.926214772739       8.943260191988
       648    1       21.985968764995       3.941199995230       8.957965206848
       649    1       23.990436197641       3.947226784174       5.958323076974
       650    1       25.992626525334       5.945045851663       5.954838121173
       651    1       23.987563633324       5.931845858650       8.949456796088
       652    1       25.995033293722       3.950137833618       8.965516687205
       653    1       27.997390682995       3.958452192416       5.968573026414
       654    1       29.998441564436       5.961256308402       5.970401038458
       655    1       27.997247794639       5.948577284449       8.963662461087
       656    1       30.000135965777       3.964535313749       8.976499729517
       657    1       32.000167372354       3.971881748344       5.980164540100
       658    1       33.999057472396       5.976869313717       5.984620172058
       659    1       32.000312619142       5.968165342513       8.979271331931
       660    1       34.000845088074       3.978560145950       8.986819862842
       661    1       35.999655190976       3.983447212320       5.989800320319
       662    1       37.997096039710       5.988165597170       5.994424859682
       663    1       35.998918769755       5.983473888455       8.991020934848
       664    1       37.999288895559       3.988755718276       8.994207371877
       665    1       39.997876181511       3.991437389481       5.996256788241
       666    1       41.995012101191       5.994857296450       5.999910267212
       667    1       39.996554113183       5.992709028893       8.997904541774
       668    1       41.997501423170       3.994853971957       8.998601801514
       669    1       43.996272078553       3.996159791001       5.999938125422
       670    1       45.993808861386       5.998286150411       6.002473950056
       671    1       43.994983493785       5.997391239976       9.001271332505
       672    1       45.996347193094       3.998044544946       9.000884006231
       673    1       -0.029294742516       7.979267024952       5.976101756611
       674    1        1.963224868205       9.974860052353       5.969266154234
       675    1       -0.029499890206       9.981363143872       8.977576169555
       676    1        1.970080946295       7.977243045807       8.975786603905
       677    1        3.963746718224       7.969993333752       5.967280910167
       678    1        5.954155093450       9.962819369707       5.956690433863
       679    1        3.960597241123       9.970893587392       8.967865302782
       680    1        5.961963823265       7.965601640894       8.966239762412
       681    1        7.957344839010       7.957344809098       5.955554507301
       682    1        9.946585777538       9.946585715921       5.940047701450
       683    1        7.949106594860       9.954506895792       8.953240090033
       684    1        9.954507106139       7.949106591490       8.953240230874
       685    1       11.954287298757       7.942243804188       5.941906784364
       686    1       13.945032160221       9.928513404663       5.921988897549
       687    1       11.939524172610       9.931383780064       8.933118245239
       688    1       13.951742553129       7.929324664386       8.938198573273
       689    1       15.958023872423       7.928556303822       5.930164528076
       690    1       17.953620948056       9.915412013614       5.910172761229
       691    1       15.939020770482       9.905937980493       8.911574132181
       692    1       17.958393794264       7.913046026764       8.926718511581
       693    1       19.969465940242       7.922850901180       5.926816857941
       694    1       21.970412027739       9.915699246704       5.914094682619
       695    1       19.953196101135       9.891147221838       8.900863162087
       696    1       21.974094461892       7.910720742487       8.927412470942
       697    1       23.984010933030       7.929907805756       5.936368304144
       698    1       25.986415497669       9.931477431737       5.935302517875
       699    1       23.975781143256       9.899988991855       8.913354081861
       700    1       25.990230811501       7.926607432530       8.943323071885
       701    1       27.994421462330       7.947477164107       5.955782717342
       702    1       29.993941718514       9.955222765545       5.963589395207
       703    1       27.991966986624       9.929326453514       8.944395578521
       704    1       29.998160376539       7.952263287825       8.966298252601
       705    1       31.997512468824       7.967595484353       5.976372782996
       706    1       33.993480617317       9.976475015980       5.986618338614
       707    1       31.995479455972       9.961687960805       8.975375273414
       708    1       33.997976993248       7.975053056058       8.985428197771
       709    1       35.995791854866       7.983382659807       5.991454020129
       710    1       37.990393382221       9.990092037525       5.999792865810
       711    1       35.992405419406       9.983798573609       8.994565051994
       712    1       37.995028134538       7.989318185420       8.996708530768
       713    1       39.993163320983       7.992947618245       5.999865690965
       714    1       41.988400991600       9.996936089959       6.005326996840
       715    1       39.989600421853       9.994796056038       9.002994348916
       716    1       41.992898053258       7.996395800769       9.001905753845
       717    1       43.991605987849       7.997757189584       6.003575041517
       718    1       45.988172903161       9.999780777496       6.006803430104
       719    1       43.988940427241       9.999184466993       9.005630014992
       720    1       45.992254959451       7.999374581848       9.003791696940
       721    1       -0.035544467407      11.980020094057       5.972194166568
       722    1        1.955797865280      13.976704255601       5.964411098352
       723    1       -0.035536906939      13.982745235908       8.974435269534
       724    1        1.961577030108      11.976908465089       8.970775521355
       725    1        3.953699035851      11.969636098085       5.959852518619
       726    1        5.941971555651      13.963802089171       5.947010235144
       727    1        3.949447882162      13.971416187684       8.960981257565
       728    1        5.947403381635      11.962501461073       8.956059937194
       729    1        7.942243757240      11.954287269203       5.941906690907
       730    1        9.928513319297      13.945032170381       5.921988750591
       731    1        7.929324214498      13.951742782502       8.938198258759
       732    1        9.931383754343      11.939523613563       8.933117745537
       733    1       11.934376129433      11.934376031842       5.918966628715
       734    1       13.922709651544      13.922709580610       5.892977942919
       735    1       11.908363218104      13.920576354443       8.902304588892
       736    1       13.920577456291      11.908363365497       8.902306075117
       737    1       15.936775317705      11.915031907401       5.897660620097
       738    1       17.932266458508      13.905992649187       5.874307562873
       739    1       15.900422069949      13.882997173694       8.859285469490
       740    1       17.926582663646      11.880006809479       8.875330813801
       741    1       19.952210174582      11.906490784147       5.891517972721
       742    1       21.954119107797      13.906385851602       5.883937684897
       743    1       19.918699349526      13.860672737622       8.838208533616
       744    1       21.951268819243      11.874769722393       8.875390023548
       745    1       23.972897093003      11.916235426070       5.909905224866
       746    1       25.974075564953      13.926045224458       5.922124463963
       747    1       23.951449343979      13.873583417764       8.867074693110
       748    1       25.977567845735      11.900644072326       8.910471240053
       749    1       27.986656569152      11.940460765148       5.945182213126
       750    1       29.981831177583      13.954906727880       5.967784117214
       751    1       27.974210644063      13.915330242513       8.929586010258
       752    1       29.989026700919      11.941566919532       8.957644675805
       753    1       31.989269589353      11.966923451860       5.978962272477
       754    1       33.979875880397      13.979327305250       5.999482781353
       755    1       31.978338493554      13.959970174088       8.983505557180
       756    1       33.987586546055      11.974682178800       8.990617912703
       757    1       35.986193153005      11.985777799119       5.999673361228
       758    1       37.976931678987      13.993200908511       6.012800927633
       759    1       35.975328635518      13.987079292379       9.008541873210
       760    1       37.984226660408      11.992060950034       9.004946105216
       761    1       39.983712363180      11.995577963903       6.008169988606
       762    1       41.977155838857      13.998952909465       6.015102435203
       763    1       39.975446819053      13.997785228044       9.014192888544
       764    1       41.983742662645      11.998776798691       9.008735010389
       765    1       43.983659068572      11.999566755727       6.010005615732
       766    1       45.979771110125      14.000736543684       6.013364185364
       767    1       43.978758928909      14.000795403363       9.013019807385
       768    1       45.985412544842      12.000776781672       9.008593643334
       769    1       -0.040212399655      15.983137083595       5.969601484954
       770    1        1.951379230812      17.981758431344       5.962041095384
       771    1       -0.039264269633      17.986526144915       8.972935746537
       772    1        1.954334338919      15.979726228360       8.966933137828
       773    1        3.945401101315      15.973393761925       5.954175493124
       774    1        5.933839187686      17.970688621043       5.941321775591
       775    1        3.941465735133      17.976766945743       8.956698399266
       776    1        5.933294925534      15.965010485279       8.946791511743
       777    1        7.928556291738      15.958023992837       5.930164635043
       778    1        9.915412078921      17.953620967513       5.910173034914
       779    1        7.913046772668      17.958393995069       8.926719684307
       780    1        9.905937228641      15.939021889885       8.911574036632
       781    1       11.915031805213      15.936775424131       5.897660566103
       782    1       13.905992589783      17.932266486939       5.874307816090
       783    1       11.880006606095      17.926584610818       8.875333140579
       784    1       13.882996723119      15.900421355003       8.859283066620
       785    1       15.915334555073      15.915334639035       5.867839690988
       786    1       17.915662827003      17.915662985433       5.856977088906
       787    1       15.864716547989      17.886403362120       8.815009334835
       788    1       17.886402391385      15.864717805885       8.815008190441
       789    1       19.933313615023      15.905883737065       5.864287253064
       790    1       21.937701915813      17.914786711828       5.881767052217
       791    1       19.883922590821      17.862914770742       8.802772252732
       792    1       21.916736900445      15.859069046780       8.826422444494
       793    1       23.956579614902      15.916298894134       5.898861913615
       794    1       25.954972573586      17.931739734540       5.940034613171
       795    1       23.914000970040      17.873061676759       8.865448849332
       796    1       25.947556494507      15.889390058227       8.894860465359
       797    1       27.970103311010      15.942115236395       5.953812762996
       798    1       29.959111259826      17.958423422834       5.998856050714
       799    1       27.934568901460      17.912677194613       8.958811197657
       800    1       29.961187173832      15.938433342809       8.972224418667
       801    1       31.970806347894      15.970143676318       5.999203619782
       802    1       33.955662871025      17.981440709727       6.030854246112
       803    1       31.939591572455      17.960318869196       9.025310760584
       804    1       33.960897728094      15.977629935423       9.015024583550
       805    1       35.967533447588      15.988922241059       6.020137877727
       806    1       37.955714072940      17.993824981471       6.035839991605
       807    1       35.942354915312      17.988702959905       9.041382108280
       808    1       37.962257912568      15.995225946779       9.024020715795
       809    1       39.967976996783      15.997396127760       6.023228278107
       810    1       41.961482375630      17.998452830420       6.029413313250
       811    1       39.952590034839      17.998131375492       9.033423072979
       812    1       41.968426846049      16.000267144263       9.020512810384
       813    1       43.972072539036      16.000155803498       6.019680038146
       814    1       45.969218995808      17.999767782619       6.021782034116
       815    1       43.964629907322      18.000182793552       9.023437024851
       816    1       45.975560169816      16.001111188819       9.015491938816
       817    1       -0.041467578047      19.988287071560       5.969529465267
       818    1        1.952285285870      21.988902280544       5.963773271875
       819    1       -0.038791789640      21.991922249921       8.974098829838
       820    1        1.951417435650      19.985759185562       8.966120279844
       821    1        3.942458998622      19.981198428435       5.953090787931
       822    1        5.934487252784      21.981926784462       5.943711275605
       823    1        3.941199702676      21.985968629214       8.957964848902
       824    1        5.926214902546      19.974561997935       8.943260143439
       825    1        7.922850952052      19.969465726717       5.926816817311
       826    1        9.915699189985      21.970411983983       5.914094203000
       827    1        7.910719861252      21.974093704326       8.927410681891
       828    1        9.891148331774      19.953194207152       8.900864177781
       829    1       11.906490905650      19.952209874195       5.891517998078
       830    1       13.906385979313      21.954119122351       5.883937185940
       831    1       11.874769142072      21.951266871328       8.875384469963
       832    1       13.860674032000      19.918696930948       8.838211623914
       833    1       15.905883779943      19.933313379338       5.864287424382
       834    1       17.914786786296      21.937701867945       5.881766988132
       835    1       15.859071325338      21.916735667875       8.826416961693
       836    1       17.862913353186      19.883921556434       8.802775584337
       837    1       19.922473087886      19.922473127804       5.875559681837
       838    1       21.929890293917      21.929890294420       5.926799652321
       839    1       19.871466268425      21.885788240424       8.850309478265
       840    1       21.885788686587      19.871466189049       8.850309368564
       841    1       23.940088997491      19.927041057896       5.930257114036
       842    1       25.936791609591      21.936474454160       5.998280431858
       843    1       23.883924388876      21.878901514982       8.943574150647
       844    1       25.904905814379      19.890119940188       8.948409583163
       845    1       27.946622811798      19.946054775143       5.998517182764
       846    1       29.932500884535      21.954732151333       6.057437361734
       847    1       27.890881634393      21.904323542766       9.046975684936
       848    1       29.913798623886      19.933723542563       9.037528622102
       849    1       31.942943224569      19.969736510841       6.044244931494
       850    1       33.926715670946      21.974029587423       6.076787699387
       851    1       31.890430131725      21.947147969000       9.102784515698
       852    1       33.916318283304      19.973817666384       9.068861557390
       853    1       35.941059034064      19.986559668767       6.054016745081
       854    1       37.931740841066      21.986501194637       6.064504394385
       855    1       35.901042117601      21.977573164757       9.089172743578
       856    1       37.929702395581      19.991962940624       9.055273868766
       857    1       39.947729362099      19.994467383579       6.044014466640
       858    1       41.945045573044      21.992734117614       6.045239300045
       859    1       39.926529927500      21.990361276041       9.056833485958
       860    1       41.948622611838      19.997337793110       9.036332418154
       861    1       43.958505932147      19.997466408174       6.031418743737
       862    1       45.958846208129      21.995714983503       6.030356588917
       863    1       43.949970290112      21.995142387000       9.034638348916
       864    1       45.964156532375      19.998791974193       9.023602115328
       865    1       -0.038281773008      23.994027071278       5.972582739156
       866    1        1.958930956614      25.995629192019       5.969747742183
       867    1       -0.033691088297      25.997087007963       8.978042619878
       868    1        1.955000473832      23.993068174979       8.969540785106
       869    1        3.947226743708      23.990436284879       5.958323008780
       870    1        5.945045930860      25.992626668444       5.954838282273
       871    1        3.950137972546      25.995033614842       8.965516826454
       872    1        5.931845435533      23.987564237265       8.949456224485
       873    1        7.929907760261      23.984011216373       5.936368177783
       874    1        9.931477525399      25.986415635704       5.935303126928
       875    1        7.926608358543      25.990231999552       8.943324582291
       876    1        9.899988230957      23.975784100067       8.913352315621
       877    1       11.916235406590      23.972897629251       5.909905260388
       878    1       13.926045024839      25.974075293781       5.922125059705
       879    1       11.900645526442      25.977568374179       8.910479377013
       880    1       13.873583091430      23.951456351047       8.867075327316
       881    1       15.916298819238      23.956579885594       5.898862042446
       882    1       17.931739725987      25.954972453453       5.940034579993
       883    1       15.889387322924      25.947550773332       8.894864785974
       884    1       17.873060862181      23.914002956974       8.865449878340
       885    1       19.927041053847      23.940089003795       5.930257116519
       886    1       21.936474453831      25.936791610094       5.998280432102
       887    1       19.890120332111      25.904905660607       8.948409235889
       888    1       21.878901513977      23.883924390459       8.943574150960
       889    1       23.932956121686      23.932956121686       5.998197695521
       890    1       25.930161457916      25.930161458270       6.070089269435
       891    1       23.883743124439      25.879180100165       9.051355259247
       892    1       25.879180099116      23.883743125186       9.051355258919
       893    1       27.927595688574      23.940074855488       6.066786612109
       894    1       29.915356097301      25.937905053773       6.116574223979
       895    1       27.871897582544      25.885802395449       9.146006542695
       896    1       29.873895527809      23.913719342828       9.131377899854
       897    1       31.916967513602      23.956630165203       6.099738154394
       898    1       33.906647804105      25.954259956125       6.115936528546
       899    1       31.859479554334      25.916696037929       9.172966462233
       900    1       33.873996978588      23.951422852747       9.132518526596
       901    1       35.916499416341      23.973015103205       6.089937215175
       902    1       37.915522134695      25.970509903644       6.086367598436
       903    1       35.874300099915      25.951260073922       9.125581090133
       904    1       37.899711338349      23.975899231892       9.087135359611
       905    1       39.929823119775      23.984133781865       6.063866022315
       906    1       41.934167088995      25.981998631046       6.056715080681
       907    1       39.910043725204      25.974128733218       9.073359164219
       908    1       41.931468529021      23.987675757660       9.050923373627
       909    1       43.947041329674      23.990531231821       6.041906230449
       910    1       45.952003636609      25.988954766084       6.036504979979
       911    1       43.940710812103      25.986011752631       9.042449046330
       912    1       45.954722850231      23.993145268443       9.030674220517
       913    1       -0.031354190392      27.998515396819       5.978157064048
       914    1        1.969141205042      29.999722924765       5.978172778699
       915    1       -0.025623819690      30.000326641050       8.983671152611
       916    1        1.964205036563      27.998712574716       8.976441389753
       917    1        3.958452261847      27.997390675239       5.968573150360
       918    1        5.961256281390      29.998441406232       5.970401082303
       919    1        3.964535417991      30.000135739989       8.976499907969
       920    1        5.948577850288      27.997247611410       8.963663279995
       921    1        7.947477222868      27.994421261231       5.955783048714
       922    1        9.955222559616      29.993941445135       5.963588976596
       923    1        7.952262777642      29.998159232969       8.966298074145
       924    1        9.929326826768      27.991964305806       8.944398139120
       925    1       11.940460571062      27.986655945522       5.945182179874
       926    1       13.954907019070      29.981831537842       5.967783387663
       927    1       11.941564679994      29.989026404325       8.957638117005
       928    1       13.915327668313      27.974203987921       8.929579415151
       929    1       15.942115437083      27.970103213303       5.953812210668
       930    1       17.958423289078      29.959111439274       5.998856521442
       931    1       15.938439024616      29.961195125242       8.972225730680
       932    1       17.912680916281      27.934572614466       8.958808984824
       933    1       19.946054742689      27.946622854145       5.998517234712
       934    1       21.954732262431      29.932500878880       6.057437314191
       935    1       19.933719431099      29.913795112638       9.037527408342
       936    1       21.904323579877      27.890881228182       9.046975376323
       937    1       23.940074850981      27.927595692895       6.066786614770
       938    1       25.937905090461      29.915356027092       6.116574161591
       939    1       23.913717654975      29.873896458293       9.131379092028
       940    1       25.885802770889      27.871897490658       9.146006610691
       941    1       27.922867499957      27.922867535233       6.122679203395
       942    1       29.915877328882      29.915877484029       6.142896416968
       943    1       27.884011415594      29.863204011392       9.196369723806
       944    1       29.863202669892      27.884010288452       9.196366551223
       945    1       31.906132764315      27.933485023867       6.135590895428
       946    1       33.905757494280      29.932188073164       6.126601398642
       947    1       31.864226170245      29.886023875112       9.186641904319
       948    1       33.860133931670      27.918490353695       9.163202041752
       949    1       35.906254042745      27.952234133969       6.109195791469
       950    1       37.914848493780      29.953473604445       6.090809898833
       951    1       35.878827001752      29.926066174940       9.126566865359
       952    1       37.890157552822      27.953017141904       9.100457283323
       953    1       39.922388378002      27.969459258195       6.073875627208
       954    1       41.933278540902      29.970588534797       6.059352139468
       955    1       39.911997156124      29.958095249830       9.074404978277
       956    1       41.925448971517      27.974491943299       9.057461530134
       957    1       43.942038826336      27.981200868470       6.047362343947
       958    1       45.950954921611      29.981708788979       6.038360204779
       959    1       43.940780130689      29.976636673663       9.043872328492
       960    1       45.950938873263      27.985742760394       9.034243777105
       961    1       -0.022817485801      32.000712315501       5.984691669229
       962    1        1.979616707819      34.000759798815       5.986511929135
       963    1       -0.017215295915      34.001255129125       8.989376237999
       964    1        1.975458319824      32.001094191718       8.984433652325
       965    1        3.971881706016      32.000167314066       5.980164509343
       966    1        5.976869257712      33.999057518154       5.984620046616
       967    1        3.978560003272      34.000845093216       8.986819728862
       968    1        5.968164982647      32.000312412827       8.979271016815
       969    1        7.967595351634      31.997512461285       5.976372489536
       970    1        9.976475161380      33.993480869309       5.986618266878
       971    1        7.975052881812      33.997977526690       8.985427623887
       972    1        9.961687105238      31.995480486614       8.975372915208
       973    1       11.966923682344      31.989270035797       5.978961927898
       974    1       13.979327394985      33.979875833207       5.999483578437
       975    1       11.974684078250      33.987587589240       8.990619587639
       976    1       13.959974312911      31.978342614578       8.983508717369
       977    1       15.970143619366      31.970806467339       5.999204561830
       978    1       17.981440295619      33.955662546525       6.030853584595
       979    1       15.977626176381      33.960893556648       9.015028598343
       980    1       17.960311065832      31.939586016182       9.025313750135
       981    1       19.969736548714      31.942942995878       6.044244391232
       982    1       21.974029910178      33.926715876550       6.076788247248
       983    1       19.973823780054      33.916320701898       9.068853814931
       984    1       21.947154108879      31.890432727375       9.102787730798
       985    1       23.956629918869      31.916967600622       6.099738307949
       986    1       25.954259906712      33.906647678953       6.115936033662
       987    1       23.951415837651      33.873997330540       9.132520151069
       988    1       25.916696807486      31.859477297199       9.172960910042
       989    1       27.933485262073      31.906132715913       6.135591048716
       990    1       29.932188057839      33.905757550095       6.126601663014
       991    1       27.918493064842      33.860132573670       9.163204836995
       992    1       29.886022897243      31.864227482285       9.186643328751
       993    1       31.915159645606      31.915159737936       6.133142180508
       994    1       33.922222755385      33.922222689123       6.108325067161
       995    1       31.899536232099      33.881857151028       9.142989870827
       996    1       33.881856678052      31.899535592770       9.142992245434
       997    1       35.914455676934      31.936450046588       6.103553733613
       998    1       37.927835211140      33.944593935798       6.079097179003
       999    1       35.907151776932      33.919595735578       9.099495780434
      1000    1       37.904706186178      31.938390017479       9.089960296452
      1001    1       39.927895490922      31.957768080021       6.070740560627
      1002    1       41.941357597630      33.963515607979       6.053705433712
      1003    1       39.928318822821      33.951168325820       9.062858447732
      1004    1       41.932410720401      31.964688624405       9.054027648097
      1005    1       43.944864398141      31.973243908204       6.046383190080
      1006    1       45.955337090908      33.976541744303       6.036020752588
      1007    1       43.948769790995      33.971126920760       9.039586782294
      1008    1       45.953780422117      31.979578843083       9.033490167510
      1009    1       -0.014892567950      36.000856227898       5.990629466600
      1010    1        1.988016744885      37.999853082292       5.993058855006
      1011    1       -0.010371643326      38.000653557434       8.994019651379
      1012    1        1.985264905366      36.000823219309       8.991288510389
      1013    1        3.983447194786      35.999655222498       5.989800277308
      1014    1        5.988165633401      37.997096073490       5.994424871753
      1015    1        3.988755728777      37.999288953434       8.994207350245
      1016    1        5.983473878426      35.998918956028       8.991020817164
      1017    1        7.983382737001      35.995791955291       5.991454025380
      1018    1        9.990092103756      37.990393323461       5.999793037510
      1019    1        7.989318405703      37.995028145019       8.996708708256
      1020    1        9.983799252069      35.992405586981       8.994565634291
      1021    1       11.985777906921      35.986193064852       5.999673779036
      1022    1       13.993200659206      37.976931519412       6.012800886555
      1023    1       11.992060840999      37.984225975694       9.004946742713
      1024    1       13.987078428841      35.975326711638       9.008543791176
      1025    1       15.988921780276      35.967533190345       6.020137594968
      1026    1       17.993825227846      37.955714278339       6.035839530908
      1027    1       15.995224772292      37.962258657385       9.024018386339
      1028    1       17.988702781316      35.942356981128       9.041375313309
      1029    1       19.986560291756      35.941059233938       6.054016627990
      1030    1       21.986501094626      37.931740751985       6.064505027982
      1031    1       19.991965826832      37.929702216308       9.055276180175
      1032    1       21.977573245629      35.901040775283       9.089181111054
      1033    1       23.973014564471      35.916499435885       6.089937311890
      1034    1       25.970509919695      37.915522193573       6.086367107277
      1035    1       23.975896052895      37.899711970917       9.087133875143
      1036    1       25.951261697067      35.874300749334       9.125575203896
      1037    1       27.952234442491      35.906253920128       6.109195785974
      1038    1       29.953473597908      37.914848424386       6.090810176008
      1039    1       27.953019186049      37.890156475990       9.100458156877
      1040    1       29.926064276199      35.878827141807       9.126569371447
      1041    1       31.936449936836      35.914455778533       6.103553691275
      1042    1       33.944593921806      37.927835298220       6.079097031348
      1043    1       31.938388834119      37.904706941411       9.089960248814
      1044    1       33.919596856540      35.907151933959       9.099494229329
      1045    1       35.933780015085      35.933779916504       6.082188214186
      1046    1       37.946023879511      37.946023816021       6.060831408809
      1047    1       35.938698786707      37.930395448801       9.068087383151
      1048    1       37.930395420055      35.938698203655       9.068087912788
      1049    1       39.941617451875      35.953850773639       6.058927802406
      1050    1       41.953636212267      37.962438871590       6.043913822635
      1051    1       39.948375978954      37.953882287550       9.047536826575
      1052    1       41.946655821254      35.962040125025       9.044638362529
      1053    1       43.953185946057      35.969366905386       6.040678850949
      1054    1       45.962816898356      37.974627506472       6.031120205482
      1055    1       43.960058243018      37.970541094775       9.032598484173
      1056    1       45.961075261625      35.976668870283       9.029616552215
      1057    1       -0.008813319918      39.999897196513       5.995142737968
      1058    1        1.993686822992      41.998375047317       5.997408773008
      1059    1       -0.005668252063      41.999538098417       8.997264457609
      1060    1        1.992126027812      39.999451712144       8.996096093483
      1061    1        3.991437405375      39.997876191961       5.996256795464
      1062    1        5.994857310233      41.995012088312       5.999910289980
      1063    1        3.994853995439      41.997501418638       8.998601818180
      1064    1        5.992709099710      39.996554106734       8.997904595174
      1065    1        7.992947650020      39.993163291830       5.999865754435
      1066    1        9.996936058324      41.988400953392       6.005327012662
      1067    1        7.996395811951      41.992897982404       9.001905809979
      1068    1        9.994796062301      39.989600200579       9.002994538436
      1069    1       11.995577867382      39.983712280288       6.008170005275
      1070    1       13.998952857114      41.977155890951       6.015102309603
      1071    1       11.998776610245      41.983742658539       9.008734902890
      1072    1       13.997784669200      39.975446949196       9.014192342189
      1073    1       15.997396117810      39.967977124776       6.023227975018
      1074    1       17.998452991814      41.961482411569       6.029413343552
      1075    1       16.000267326075      41.968427225690       9.020512461898
      1076    1       17.998132505299      39.952590632793       9.033422764637
      1077    1       19.994467606906      39.947729315638       6.044014784878
      1078    1       21.992733980296      41.945045487369       6.045239477969
      1079    1       19.997338032955      41.948622049288       9.036333254993
      1080    1       21.990360154113      39.926528917448       9.056835169027
      1081    1       23.984133483639      39.929823156530       6.063865920007
      1082    1       25.981998656536      41.934167178815       6.056714862203
      1083    1       23.987675094328      41.931468929351       9.050922826575
      1084    1       25.974129422312      39.910044669664       9.073357255922
      1085    1       27.969459477392      39.922388331828       6.073875568914
      1086    1       29.970588587682      41.933278461372       6.059352252049
      1087    1       27.974492617793      41.925448864629       9.057461442593
      1088    1       29.958095089904      39.911996372452       9.074406199808
      1089    1       31.957767958787      39.927895500391       6.070740675524
      1090    1       33.963515538758      41.941357633015       6.053705441380
      1091    1       31.964688278699      41.932410546249       9.054028010163
      1092    1       33.951168073405      39.928319289726       9.062858126469
      1093    1       35.953850802721      39.941617500511       6.058927705876
      1094    1       37.962438897153      41.953636233511       6.043913778849
      1095    1       35.962040116902      41.946656010050       9.044638209064
      1096    1       37.953882508653      39.948375976025       9.047536676715
      1097    1       39.956873482338      39.956873451271       6.045076660909
      1098    1       41.965723090586      41.965723076972       6.033869975778
      1099    1       39.965145782750      41.961440030122       9.034265858303
      1100    1       41.961440035351      39.965145706301       9.034265899485
      1101    1       43.963337612293      39.969681914530       6.033149339653
      1102    1       45.970903843846      41.975521121188       6.025480999003
      1103    1       43.970783966272      41.973333695309       9.025531269042
      1104    1       45.969693571529      39.976977958941       9.024528421033
      1105    1       -0.004745512520      43.998714343370       5.998152511764
      1106    1        1.997068731837      45.997151335925       5.999956024133
      1107    1       -0.002797112895      45.998549580584       8.999299235258
      1108    1        1.996256269596      43.998122935123       8.999027615954
      1109    1        3.996159796790      43.996272073082       5.999938133673
      1110    1        5.998286147707      45.993808854386       6.002473953893
      1111    1        3.998044547597      45.996347184960       9.000884011910
      1112    1        5.997391245898      43.994983470361       9.001271349840
      1113    1        7.997757180072      43.991605971312       6.003575049927
      1114    1        9.999780761867      45.988172906292       6.006803417416
      1115    1        7.999374564736      45.992254950828       9.003791694612
      1116    1        9.999184409706      43.988940412539       9.005629996504
      1117    1       11.999566722341      43.983659084027       6.010005573638
      1118    1       14.000736554216      45.979771137555       6.013364158011
      1119    1       12.000776757514      45.985412589981       9.008593598349
      1120    1       14.000795388479      43.978759073451       9.013019667326
      1121    1       16.000155859883      43.972072584916       6.019680001473
      1122    1       17.999767820189      45.969218974833       6.021782076411
      1123    1       16.001111275817      45.975560194962       9.015491942591
      1124    1       18.000183032942      43.964629817158       9.023437194256
      1125    1       19.997466422820      43.958505862661       6.031418870933
      1126    1       21.995714929624      45.958846186353       6.030356616620
      1127    1       19.998791948299      45.964156388298       9.023602255276
      1128    1       21.995142063914      43.949970127061       9.034638515558
      1129    1       23.990531138278      43.947041367189       6.041906166479
      1130    1       25.988954773746      45.952003679808       6.036504914758
      1131    1       23.993145149719      45.954722962422       9.030674109690
      1132    1       25.986011876114      43.940711122160       9.042448667177
      1133    1       27.981200955629      43.942038833495       6.047362297144
      1134    1       29.981708823182      45.950954896664       6.038360223930
      1135    1       27.985742903540      45.950938905944       9.034243716030
      1136    1       29.976636793695      43.940779910604       9.043872514523
      1137    1       31.973243883873      43.944864359006       6.046383259371
      1138    1       33.976541719531      45.955337081655       6.036020776247
      1139    1       31.979578816307      45.953780327180       9.033490257567
      1140    1       33.971126773120      43.948769799366       9.039586841857
      1141    1       35.969366882130      43.953185972813       6.040678837454
      1142    1       37.974627501350      45.962816912718       6.031120195422
      1143    1       35.976668825118      45.961075286213       9.029616552990
      1144    1       37.970541113823      43.960058308733       9.032598428667
      1145    1       39.969681928959      43.963337620448       6.033149322368
      1146    1       41.975521128186      45.970903846785       6.025480992486
      1147    1       39.976977971144      45.969693593463       9.024528402249
      1148    1       41.973333721591      43.970783963155       9.025531257333
      1149    1       43.972677466946      43.972677461195       6.025938757049
      1150    1       45.978066232205      45.978066229777       6.020271126547
      1151    1       43.979293015609      45.977496414131       9.019609828774
      1152    1       45.977496415662      43.979293006296       9.019609832303
      1153    1       -0.011064317349      -0.011064318914      11.988378155719
      1154    1        1.985753825836       1.985753821349      11.985649724753
      1155    1       -0.006961727736       1.993551963032      14.989003506462
      1156    1        1.993551965760      -0.006961728154      14.989003507113
      1157    1        3.987136377908      -0.015090077216      11.985851498253
      1158    1        5.983274414008       1.980080720589      11.982130203734
      1159    1        3.991524862558       1.990785462135      14.986585745102
      1160    1        5.992588510496      -0.009532378037      14.986965124481
      1161    1        7.985847660118      -0.020106587606      11.983022060975
      1162    1        9.981672031284       1.972984240982      11.978162834783
      1163    1        7.990175224160       1.987040110727      14.983822240643
      1164    1        9.992058206390      -0.012642053124      14.984894004546
      1165    1       11.985781503035      -0.025594115475      11.980271714405
      1166    1       13.982130431999       1.965509746645      11.974455016841
      1167    1       11.989580563103       1.982521155786      14.981051785894
      1168    1       13.992416178041      -0.015804322676      14.983208261646
      1169    1       15.987618410926      -0.030242468164      11.978337958423
      1170    1       17.985569883488       1.960088826519      11.972349734637
      1171    1       15.990500177729       1.978214380982      14.979013222027
      1172    1       17.993968931973      -0.018013895324      14.982529922297
      1173    1       19.991370598597      -0.032151632388      11.978156130778
      1174    1       21.991412044962       1.959710993398      11.973320805067
      1175    1       19.993242973215       1.975986075091      14.978748189957
      1176    1       21.996439246654      -0.018109900397      14.983425144418
      1177    1       23.995895540614      -0.029961683302      11.980290036692
      1178    1       25.997236104185       1.965452093951      11.977717277209
      1179    1       23.996902552535       1.977492688065      14.980962076498
      1180    1       25.998885837976      -0.015697190996      14.985950264717
      1181    1       27.999457781706      -0.024168591871      11.984339167846
      1182    1       30.000642342492       1.974964043640      11.984094963550
      1183    1       27.999753093640       1.982401416762      14.985224756035
      1184    1       30.000382181165      -0.011682868005      14.989462914747
      1185    1       32.001066021080      -0.016950337455      11.989089674342
      1186    1       34.001261097399       1.984427970009      11.990315410917
      1187    1       32.000842045018       1.988424608400      14.990124291284
      1188    1       34.000740976522      -0.007571520489      14.993025588725
      1189    1       36.001013842846      -0.010509929176      11.993351277010
      1190    1       38.000338227948       1.991486763873      11.995067442840
      1191    1       36.000594910559       1.993422175464      14.994355301693
      1192    1       38.000406300654      -0.004368594644      14.995974054513
      1193    1       40.000197265072      -0.005867623350      11.996549669226
      1194    1       41.999147457141       1.995851254833      11.998160751285
      1195    1       39.999898025118       1.996687552156      14.997393759340
      1196    1       41.999889266601      -0.002281425610      14.998100749428
      1197    1       43.999325955172      -0.002970753397      11.998676827410
      1198    1       45.998287831008       1.998232858734      11.999968520663
      1199    1       43.999300030610       1.998518444386      14.999327419604
      1200    1       45.999468653385      -0.001073966650      14.999496815786
      1201    1       -0.015090079881       3.987136371252      11.985851495168
      1202    1        1.980080710512       5.983274394182      11.982130193111
      1203    1       -0.009532385520       5.992588504355      14.986965120438
      1204    1        1.990785463006       3.991524853689      14.986585742863
      1205    1        3.981253505403       3.981253491444      11.981815872391
      1206    1        5.974703571951       5.974703524409      11.976199911167
      1207    1        3.987441568402       5.988545304118      14.983237900358
      1208    1        5.988545336314       3.987441567296      14.983237909106
      1209    1        7.977763838592       3.973033728143      11.976716604397
      1210    1        9.969694055313       5.962429363346      11.968455925237
      1211    1        7.983978205559       5.982255728908      14.978391479914
      1212    1        9.986599338717       3.981771961424      14.979343950225
      1213    1       11.975853453033       3.962772248535      11.970946598846
      1214    1       13.967681192558       5.947325727784      11.959730664325
      1215    1       11.981078028525       5.973267488430      14.972620300653
      1216    1       13.986039146220       3.975003904710      14.975522407611
      1217    1       15.977522142534       3.952661133481      11.965915198546
      1218    1       17.972016127852       5.934165218845      11.953065479545
      1219    1       15.980878557647       5.962818278665      14.967154044068
      1220    1       17.988143029172       3.969242137657      14.973164068387
      1221    1       19.983776526765       3.947246369876      11.964159631562
      1222    1       21.982937299837       5.931214514760      11.953304301828
      1223    1       19.985475299288       5.955648657501      14.964816141419
      1224    1       21.992902451965       3.967956025058      14.974036856935
      1225    1       23.992429467629       3.950737001948      11.967788979604
      1226    1       25.994602445342       5.942686365238      11.962515312160
      1227    1       23.993412599839       5.957909339856      14.968516799587
      1228    1       25.997953356308       3.972923529836      14.978701421426
      1229    1       27.999048883327       3.962292723235      11.975976124581
      1230    1       30.000536150902       5.962264676184      11.976297615745
      1231    1       27.999473198372       5.969403891610      14.977462944328
      1232    1       30.000659315313       3.981573130072      14.985438201514
      1233    1       32.001310376240       3.976145493043      11.985235767898
      1234    1       34.000568998706       5.979827507912      11.988298345096
      1235    1       32.000991986699       5.982644848651      14.987204520715
      1236    1       34.000827416024       3.989614486803      14.991735335177
      1237    1       36.000501185356       3.987171349616      11.992614701659
      1238    1       37.998438749388       5.990932212668      11.995936118892
      1239    1       35.999923181498       5.991914908142      14.994407474029
      1240    1       37.999914873858       3.994968487106      14.996279198152
      1241    1       39.998880158401       3.993995439336      11.997335635308
      1242    1       41.996703977316       5.996585889107      11.999936071763
      1243    1       39.998633845505       5.996809721536      14.998659868107
      1244    1       41.999044891178       3.997877168700      14.999070563453
      1245    1       43.997667560362       3.997588327927      11.999956087948
      1246    1       45.995936398842       5.999085280563      12.001755965519
      1247    1       43.997934182826       5.998996320426      15.000845017817
      1248    1       45.998556466491       3.999267222606      15.000611393628
      1249    1       -0.020106605783       7.985847657647      11.983022052545
      1250    1        1.972984185164       9.981672037548      11.978162810690
      1251    1       -0.012642070148       9.992058216809      14.984894000836
      1252    1        1.987040082265       7.990175206508      14.983822226674
      1253    1        3.973033687312       7.977763775884      11.976716564035
      1254    1        5.962429185364       9.969693848511      11.968455755532
      1255    1        3.981771842117       9.986599289739      14.979343896760
      1256    1        5.982255723402       7.983978072312      14.978391439980
      1257    1        7.964869074157       7.964868895648      11.967549278705
      1258    1        9.949640433393       9.949639696161      11.953406676065
      1259    1        7.973762966141       9.976602512629      14.970947255412
      1260    1        9.976603157041       7.973763052081      14.970947476231
      1261    1       11.957591145784       7.945983292419      11.955126873871
      1262    1       13.939218561819       9.919955933716      11.932294151892
      1263    1       11.963884647641       9.958865397983      14.958531525207
      1264    1       13.972119156458       7.958693690994      14.961786030564
      1265    1       15.956312514854       7.923689331965      11.941486182699
      1266    1       17.941305742592       9.888390554675      11.910979966124
      1267    1       15.956696878893       9.931880627656      14.942510358787
      1268    1       17.973267253638       7.942187007057      14.953650661782
      1269    1       19.966229116729       7.908556626575      11.933699382244
      1270    1       21.961669715682       9.877267035956      11.906402409755
      1271    1       19.962115955006       9.906110670428      14.930099753041
      1272    1       21.983015022196       7.935398667599      14.952789796667
      1273    1       23.983894227470       7.913978857819      11.940390707173
      1274    1       25.986338285555       9.901472835612      11.929404311193
      1275    1       23.981683480328       9.907702755952      14.936190193238
      1276    1       25.995129315024       7.947267814343      14.963117122225
      1277    1       27.997111885595       7.938917388248      11.959879588746
      1278    1       29.997178987440       9.943364994238      11.963813438784
      1279    1       27.997112757377       9.940374078500      14.960714908951
      1280    1       30.000541666556       7.968992014406      14.978669004949
      1281    1       32.000054997965       7.966829514013      11.980163376827
      1282    1       33.995729617454       9.975811762586      11.988350224863
      1283    1       31.999091232552       9.973619307303      14.983966541602
      1284    1       33.999821416300       7.986047296713      14.990987782645
      1285    1       35.997603383122       7.985602959412      11.993387382131
      1286    1       37.992354126161       9.992058350521      11.999838312257
      1287    1       35.996482508139       9.991152511398      14.996627987712
      1288    1       37.997912303092       7.994900882007      14.997955826058
      1289    1       39.995123758756       7.994940848041      11.999901775292
      1290    1       41.991126443120       9.998305786999      12.003883885977
      1291    1       39.995049116795       9.997789972443      15.001859431866
      1292    1       41.996899128364       7.998558790751      15.001218673156
      1293    1       43.994121848253       7.998790559139      12.002544811113
      1294    1       45.991598337725      10.000286621612      12.004835131418
      1295    1       43.995052935712       9.999866936285      15.003615240780
      1296    1       45.996743146281       7.999864701472      15.002530571729
      1297    1       -0.025594117839      11.985781540000      11.980271722747
      1298    1        1.965509797428      13.982130553631      11.974455076261
      1299    1       -0.015804284692      13.992416218196      14.983208283577
      1300    1        1.982521116332      11.989580621307      14.981051784084
      1301    1        3.962772081472      11.975853534429      11.970946537704
      1302    1        5.947325312283      13.967681738340      11.959730604054
      1303    1        3.975003886013      13.986039451264      14.975522465065
      1304    1        5.973266936780      11.981077934758      14.972620075163
      1305    1        7.945982467790      11.957590477327      11.955126093806
      1306    1        9.919952084891      13.939216891680      11.932290454975
      1307    1        7.958690951335      13.972119587598      14.961785040416
      1308    1        9.958864464329      11.963880906587      14.958529976951
      1309    1       11.925558933818      11.925555688502      11.928733718509
      1310    1       13.888221692444      13.888208247608      11.883531073755
      1311    1       11.930372837763      13.940035723668      14.935169695429
      1312    1       13.940062184284      11.930383558525      14.935184176101
      1313    1       15.912091169979      11.879529251982      11.891440669640
      1314    1       17.877453067243      13.825342289558      11.821870454675
      1315    1       15.891192105420      13.870634517914      14.882848449463
      1316    1       17.928391623510      11.878860094098      14.903087219756
      1317    1       19.924230894550      11.841993759134      11.862393294495
      1318    1       21.909080818767      13.801952176277      11.805519615282
      1319    1       19.875196773267      13.775049795083      14.809527244658
      1320    1       21.946264746607      11.844903593200      14.886395377826
      1321    1       23.959244347437      11.850294772336      11.876944955490
      1322    1       25.953727385320      13.845803507698      11.869129381598
      1323    1       23.919310357936      13.766208232549      14.815315178576
      1324    1       25.980810305747      11.878609198031      14.917993257293
      1325    1       27.986178529182      11.902823484768      11.930234927729
      1326    1       29.975708762047      13.922054887399      11.954129662589
      1327    1       27.971443460146      13.869076058986      14.916871028017
      1328    1       29.994981792827      11.944161047043      14.966977513890
      1329    1       31.990720300055      11.957078154462      11.977581505593
      1330    1       33.976193289718      13.975328652369      11.999420116829
      1331    1       31.982728582984      13.960843575577      14.986127725865
      1332    1       33.993102565188      11.982807440995      14.993753992318
      1333    1       35.987095167119      11.986595718198      11.999709408011
      1334    1       37.976319181207      13.995410543993      12.011159068143
      1335    1       35.983326489788      13.992699165226      15.005683097813
      1336    1       37.991416568411      11.996269227735      15.003068202167
      1337    1       39.985912239448      11.997400021002      12.006325366120
      1338    1       41.980063989024      14.000482389478      12.011502235630
      1339    1       39.986262451985      13.999714604121      15.008780065581
      1340    1       41.992047797393      11.999852431199      15.005439407484
      1341    1       43.987333265238      12.000433644614      12.007247631645
      1342    1       45.984529236327      14.001250096162      12.009599547019
      1343    1       43.989700711100      14.000807397224      15.008160677779
      1344    1       45.993484993675      12.000575705365      15.005565482401
      1345    1       -0.030242385009      15.987618419271      11.978338005206
      1346    1        1.960089028653      17.985569762682      11.972349835484
      1347    1       -0.018013831911      17.993968877011      14.982529941282
      1348    1        1.978214581615      15.990500259859      14.979013316787
      1349    1        3.952661513018      15.977522450768      11.965915517998
      1350    1        5.934166924430      17.972016215433      11.953066775934
      1351    1        3.969242947359      17.988142903455      14.973164399248
      1352    1        5.962819094536      15.980880024868      14.967154694874
      1353    1        7.923689111042      15.956315353188      11.941487154115
      1354    1        9.888396713888      17.941314803528      11.910990482215
      1355    1        7.942196161939      17.973272078622      14.953656098081
      1356    1        9.931867960836      15.956707227371      14.942507326269
      1357    1       11.879513987395      15.912092362679      11.891426119536
      1358    1       13.825311672346      17.877487192629      11.821857046384
      1359    1       11.878850290353      17.928522648186      14.903125160044
      1360    1       13.870499725188      15.890981187291      14.882666785834
      1361    1       15.838749176789      15.838716113929      11.805049319354
      1362    1       17.800451609037      17.800467070403      11.719314569385
      1363    1       15.748494518331      17.791373893095      14.742132546813
      1364    1       17.792224059212      15.749549288311      14.744040406881
      1365    1       19.847754128155      15.782714578921      11.742948778745
      1366    1       21.826139886022      17.777329059329      11.748571568850
      1367    1       19.686495615744      17.654010765294      14.588832103888
      1368    1       21.789926287118      15.666997430434      14.659311270004
      1369    1       23.891633290097      15.796426296222      11.794983157912
      1370    1       25.862405943841      17.813069095626      11.872470032004
      1371    1       23.657513309667      17.631075092142      14.749580313608
      1372    1       25.853873100687      15.730382824852      14.790110052390
      1373    1       27.934568680616      15.868147532168      11.912340747195
      1374    1       29.903112918179      17.901492704760      11.997612308740
      1375    1       27.760124602471      17.726979352493      14.915925411881
      1376    1       29.937830994762      15.892747371589      14.960959294773
      1377    1       31.952164354477      15.950764094567      11.998749713002
      1378    1       33.923316374268      17.974911055231      12.044189293825
      1379    1       31.895500124301      17.936896177993      15.035607595818
      1380    1       33.962018290835      15.981930434267      15.012602639842
      1381    1       35.957912032081      15.990215357922      12.021523137983
      1382    1       37.943815743413      17.997041937916      12.035770821831
      1383    1       35.944558026319      17.994673343018      15.032502252029
      1384    1       37.973960964644      15.998926688081      15.015669762758
      1385    1       39.967168299990      15.999947836618      12.019544815412
      1386    1       41.962371660992      18.000572609840      12.023608367371
      1387    1       39.969087514483      18.000543587027      15.021181424814
      1388    1       41.982753721207      16.000977399063      15.012662419714
      1389    1       43.976264023866      16.001314468362      12.014664443819
      1390    1       45.974968355150      18.000692262908      12.015886752701
      1391    1       43.981575497194      18.000694496494      15.014517167787
      1392    1       45.988455292119      16.000855419942      15.009821772389
      1393    1       -0.032151670136      19.991370494370      11.978156095569
      1394    1        1.959710656226      21.991411908538      11.973320569028
      1395    1       -0.018110034951      21.996439201106      14.983425082382
      1396    1        1.975986038683      19.993242691829      14.978748143448
      1397    1        3.947246425924      19.983775796783      11.964159547609
      1398    1        5.931212328384      21.982935822692      11.953302254842
      1399    1        3.967954852118      21.992901832230      14.974036257643
      1400    1        5.955650034838      19.985472592064      14.964816438525
      1401    1        7.908559988342      19.966224467328      11.933701286019
      1402    1        9.877256188174      21.961654296672      11.906384433994
      1403    1        7.935385457415      21.983002837696      14.952781189161
      1404    1        9.906165113488      19.962098394573      14.930128914649
      1405    1       11.842021804883      19.924221649839      11.862432127949
      1406    1       13.801951216735      21.909016728790      11.805434362654
      1407    1       11.844792083584      21.945939491868      14.886239571645
      1408    1       13.775814019126      19.875863799452      14.810640769690
      1409    1       15.782716484601      19.847750915095      11.743031076498
      1410    1       17.777377722943      21.826097600568      11.748516848369
      1411    1       15.667656224669      21.788148307456      14.657662059448
      1412    1       17.653013560998      19.686009672997      14.591611378935
      1413    1       19.786850884056      19.786885180751      11.736238511465
      1414    1       21.768896333413      21.768896980577      11.856913756602
      1415    1       19.571338317751      21.571407972928      14.779968640897
      1416    1       21.571874300709      19.571253738060      14.779868698192
      1417    1       23.797498474589      19.776666868406      11.858355411779
      1418    1       25.777759972909      21.777324103658      11.996645616845
      1419    1       23.499358641162      21.500911848607      14.936742077552
      1420    1       25.570224147045      19.569752716777      14.924785178877
      1421    1       27.833605183511      19.832521513241      11.996828022570
      1422    1       29.813922234173      21.860761654130      12.122202604983
      1423    1       27.568389161472      21.568180055473      15.068338449350
      1424    1       29.729599183106      19.759802817412      15.078647157421
      1425    1       31.869629055952      19.933251081352      12.084516454878
      1426    1       33.846375466884      21.953146632957      12.129929220958
      1427    1       31.730205839014      21.847012631004      15.202543723285
      1428    1       33.868923311642      19.969762553308      15.082582431349
      1429    1       35.903348917159      19.985926311980      12.069193654899
      1430    1       37.901165991093      21.986455627615      12.070907570186
      1431    1       35.877839214414      21.980816373544      15.082393469195
      1432    1       37.940297672779      19.997120913300      15.039204338675
      1433    1       39.938921508298      19.997198807627      12.040110775854
      1434    1       41.942376238141      21.994730711345      12.037696711344
      1435    1       39.946812441650      21.995248252278      15.037095364411
      1436    1       41.969298124835      19.999546370054      15.022546676746
      1437    1       43.962206179254      19.999137609135      12.024066703369
      1438    1       45.965255742969      21.997315879311      12.022393081564
      1439    1       43.972717477937      21.998019768426      15.021390158505
      1440    1       45.982330841262      19.999798994191      15.014790945912
      1441    1       -0.029961798159      23.995895609530      11.980289967581
      1442    1        1.965452157238      25.997236390212      11.977717311148
      1443    1       -0.015697187921      25.998885937222      14.985950266058
      1444    1        1.977492331837      23.996902724741      14.980961919038
      1445    1        3.950736223836      23.992429990708      11.967788407613
      1446    1        5.942687534262      25.994604541763      11.962516204630
      1447    1        3.972923808269      25.997954277203      14.978701544959
      1448    1        5.957905126915      23.993414623452      14.968514694614
      1449    1        7.913973336303      23.983899126463      11.940385107541
      1450    1        9.901487920773      25.986350893263      11.929423131389
      1451    1        7.947276854812      25.995141028992      14.963121951678
      1452    1        9.907626506651      23.981721345951      14.936139742219
      1453    1       11.850274446197      23.959289264614      11.876907058676
      1454    1       13.845833640401      25.953702853926      11.869298089677
      1455    1       11.878935333596      25.980961240980      14.918269646649
      1456    1       13.765190514203      23.920235567502      14.813871768741
      1457    1       15.796413286701      23.891765982704      11.795015660287
      1458    1       17.813055731620      25.862308174856      11.872441100218
      1459    1       15.730616489399      25.851821983637      14.794833577722
      1460    1       17.629957720190      23.659334164412      14.751010886211
      1461    1       19.776662127253      23.797505988868      11.858358864940
      1462    1       21.777323678350      25.777760622183      11.996645974921
      1463    1       19.570172799322      25.570077415272      14.924466176610
      1464    1       21.500911113653      23.499359713061      14.936742252617
      1465    1       23.757812037091      23.757812037091      11.996652780692
      1466    1       25.767997864356      25.767998322963      12.136425859257
      1467    1       23.497792141259      25.499224678799      15.057218557424
      1468    1       25.499223934422      23.497792635123      15.057218379782
      1469    1       27.776481896322      23.796168588121      12.135204678426
      1470    1       29.777522582118      25.824887460942      12.248005879646
      1471    1       27.566617626968      25.566246386429      15.210608590420
      1472    1       29.626789607334      23.652998956088      15.239663333170
      1473    1       31.796985661463      23.890626987760      12.203193368136
      1474    1       33.800765647962      25.908342189202      12.196744487175
      1475    1       31.665548417378      25.782989442035      15.346183299665
      1476    1       33.761985278420      23.918418519053      15.189573207103
      1477    1       35.849409533458      23.959181070534      12.124232407079
      1478    1       37.875732259387      25.961495966251      12.095087270550
      1479    1       35.841116290267      25.944998704314      15.116636513848
      1480    1       37.906162341844      23.981701172277      15.064757403084
      1481    1       39.913198461189      23.983996521190      12.060239927516
      1482    1       41.930383154818      25.982935289461      12.047284427034
      1483    1       39.934215834895      25.982905611429      15.047910850996
      1484    1       41.957387015501      23.993469305448      15.031760348661
      1485    1       43.950308208701      23.992508920940      12.032482969759
      1486    1       45.959290623848      25.991435358769      12.026932776050
      1487    1       43.967514908355      25.992902687262      15.026213230916
      1488    1       45.977270589722      23.996938977131      15.019155639294
      1489    1       -0.024168486004      27.999457827397      11.984339229521
      1490    1        1.974964235627      30.000642206749      11.984095107947
      1491    1       -0.011682780106      30.000382150417      14.989462956694
      1492    1        1.982401728756      27.999753176605      14.985224896903
      1493    1        3.962293533314      27.999048941357      11.975976717884
      1494    1        5.962264995115      30.000534740426      11.976298198540
      1495    1        3.981573612128      30.000658828182      14.985438481647
      1496    1        5.969407548707      27.999472857485      14.977464848462
      1497    1        7.938922621539      27.997109120020      11.959885397214
      1498    1        9.943355971646      29.997171825823      11.963806536785
      1499    1        7.968990956954      30.000535494358      14.978669452840
      1500    1        9.940416498462      27.997080601650      14.960747009179
      1501    1       11.902819939269      27.986134437361      11.930251682000
      1502    1       13.922039567834      29.975759645990      11.954033751703
      1503    1       11.944029830003      29.994986720276      14.966884260483
      1504    1       13.868603989421      27.970740491174      14.916586741878
      1505    1       15.868139330325      27.934545136627      11.912092587282
      1506    1       17.901485416572      29.903141065329      11.997877072180
      1507    1       15.893539360582      29.939026344864      14.960888424792
      1508    1       17.729416373266      27.762827380424      14.913078917452
      1509    1       19.832493591160      27.833642792240      11.996891932442
      1510    1       21.860853654805      29.813925258234      12.122156491964
      1511    1       19.756817645791      29.727205025568      15.076998751518
      1512    1       21.568222395037      27.567972150358      15.068060971178
      1513    1       23.796163161905      27.776487023417      12.135208425567
      1514    1       25.824922089914      29.777474394489      12.247949107873
      1515    1       23.651471626825      29.628046995445      15.241283146483
      1516    1       25.566626880579      27.566518503914      15.210665641365
      1517    1       27.786200524360      27.786232015456      12.259525712863
      1518    1       29.799420185630      29.799440091234      12.283103346890
      1519    1       27.682137063856      29.651895498707      15.407787759460
      1520    1       29.650858027474      27.681441853944      15.404787307537
      1521    1       31.781676864387      27.846662871626      12.259491566810
      1522    1       33.822658306235      29.875808480684      12.182180363028
      1523    1       31.741397509482      29.785406788744      15.268263906596
      1524    1       33.769530878606      27.872487327022      15.196069540247
      1525    1       35.839711871347      27.923419708216      12.140339922954
      1526    1       37.886376838775      29.940516135425      12.090897169381
      1527    1       35.875237819644      29.926668498078      15.099698023983
      1528    1       37.903875518447      27.961450381383      15.071400228204
      1529    1       39.907151970941      27.965961933207      12.067429446622
      1530    1       41.933107063412      29.971736367342      12.047694850638
      1531    1       39.940891173055      29.972827080055      15.047188235892
      1532    1       41.954846075439      27.985343104875      15.035666478194
      1533    1       43.946544731814      27.983706661602      12.036298909869
      1534    1       45.959549041984      29.985473678558      12.027988057648
      1535    1       43.968711553815      29.988019723860      15.027170970681
      1536    1       45.975649488567      27.993214429553      15.021456249653
      1537    1       -0.016950318565      32.001065961216      11.989089695247
      1538    1        1.984427865295      34.001261057934      11.990315359019
      1539    1       -0.007571545383      34.000740951178      14.993025581504
      1540    1        1.988424607149      32.000841913444      14.990124307496
      1541    1        3.976145290355      32.001310070932      11.985235705339
      1542    1        5.979826871031      34.000569336292      11.988297800259
      1543    1        3.989614185617      34.000827433007      14.991735198612
      1544    1        5.982643731188      32.000991428923      14.987204088224
      1545    1        7.966826640297      32.000055100088      11.980160965500
      1546    1        9.975812809214      33.995733197996      11.988349089167
      1547    1        7.986045855511      33.999823325362      14.990986623587
      1548    1        9.973604600605      31.999100252992      14.983956204858
      1549    1       11.957077835018      31.990737955690      11.977568323438
      1550    1       13.975343357000      33.976180308326      11.999447840588
      1551    1       11.982826135509      33.993106551561      14.993761592103
      1552    1       13.960983933251      31.982810245683      14.986179869467
      1553    1       15.950801529190      31.952135527259      11.998883742022
      1554    1       17.974853919425      33.923324464054      12.044098906013
      1555    1       15.981869551969      33.961859642009      15.012676343564
      1556    1       17.935832996983      31.894501936374      15.035916863784
      1557    1       19.933252396645      31.869624748100      12.084264184152
      1558    1       21.953186188809      33.846350229052      12.130097260643
      1559    1       19.970419699373      33.869534424758      15.082119055275
      1560    1       21.849463658107      31.730238786662      15.206607289994
      1561    1       23.890497712865      31.797002009434      12.203249431524
      1562    1       25.908401807812      33.800769052866      12.196647397625
      1563    1       23.917301733551      33.762897098903      15.188252711469
      1564    1       25.784649461187      31.664944663179      15.343886261903
      1565    1       27.846674248416      31.781672442018      12.259574345458
      1566    1       29.875772037746      33.822688808149      12.182169491837
      1567    1       27.871821608700      33.768677332836      15.197316389553
      1568    1       29.786245221786      31.742504957462      15.266218217459
      1569    1       31.836360999719      31.836327659869      12.199506164715
      1570    1       33.886052751799      33.886038453352      12.119403707495
      1571    1       31.887782831454      33.866429655694      15.121118812438
      1572    1       33.866277725038      31.887550513181      15.121324847565
      1573    1       35.877158176627      31.910555152888      12.111195875193
      1574    1       37.918376830310      33.938130762330      12.069170046232
      1575    1       35.928428480618      33.938424764936      15.066442246586
      1576    1       37.930081539159      31.955716733890      15.058776188454
      1577    1       39.922285889225      31.955677313162      12.059645029648
      1578    1       41.946405851045      33.967215723655      12.040952467857
      1579    1       39.957754407985      33.971560935195      15.038895510005
      1580    1       41.962062581692      31.980578679523      15.033350460404
      1581    1       43.951917348368      31.977276685502      12.034587188077
      1582    1       45.964995545214      33.981931924375      12.025882610874
      1583    1       43.974546944886      33.985834216793      15.024801904197
      1584    1       45.977862934881      31.990397057588      15.021224242168
      1585    1       -0.010509965828      36.001013844925      11.993351257150
      1586    1        1.991486741260      38.000338270180      11.995067418280
      1587    1       -0.004368610649      38.000406312747      14.995974045278
      1588    1        1.993422105471      36.000594939256      14.994355266194
      1589    1        3.987171224586      36.000501316818      11.992614587056
      1590    1        5.990932352539      37.998438872949      11.995936144312
      1591    1        3.994968487422      37.999914951349      14.996279178314
      1592    1        5.991914788139      35.999923553818      14.994407328163
      1593    1        7.985603393477      35.997604039961      11.993387355433
      1594    1        9.992059139863      37.992353389809      11.999839175001
      1595    1        7.994901381809      37.997912247999      14.997956034245
      1596    1        9.991155301934      35.996482557237      14.996629133150
      1597    1       11.986599224146      35.987091954899      11.999714147602
      1598    1       13.995407064325      37.976317756296      12.011158259392
      1599    1       11.996269435895      37.991413676638      15.003069471175
      1600    1       13.992697310198      35.983306554719      15.005692064299
      1601    1       15.990197396249      35.957910379597      12.021511711321
      1602    1       17.997048376479      37.943825691945      12.035762620895
      1603    1       15.998916458971      37.973975208053      15.015659297798
      1604    1       17.994655293084      35.944695366856      15.032400372094
      1605    1       19.985971940939      35.903356880016      12.069204379218
      1606    1       21.986444080775      37.901149356726      12.070928789198
      1607    1       19.997157473533      37.940257372904      15.039236065367
      1608    1       21.980687139857      35.877472705849      15.082711058033
      1609    1       23.959131016407      35.849426984570      12.124199372882
      1610    1       25.961511208901      37.875744613146      12.095067109638
      1611    1       23.981655105802      37.906239205771      15.064706088100
      1612    1       25.945346895836      35.841268559549      15.116439605406
      1613    1       27.923432080373      35.839683112510      12.140379140741
      1614    1       29.940506823715      37.886369958136      12.090908696846
      1615    1       27.961472507041      37.903817877044      15.071430843290
      1616    1       29.926522174760      35.875242477028      15.099744798572
      1617    1       31.910553371351      35.877174315561      12.111180557185
      1618    1       33.938132474136      37.918380966644      12.069166069348
      1619    1       31.955704943297      37.930095040948      15.058773127927
      1620    1       33.938453962641      35.928440571072      15.066425997946
      1621    1       35.924102237464      35.924098752282      12.072860856231
      1622    1       37.948720772796      37.948719981993      12.047480887019
      1623    1       35.963062631255      37.957893743829      15.042265503631
      1624    1       37.957892696685      35.963058540317      15.042267215316
      1625    1       39.944988748444      35.956872810962      12.045703986461
      1626    1       41.961796638704      37.969219744619      12.032043986006
      1627    1       39.973229650652      37.976142849105      15.029507510961
      1628    1       41.972737796232      35.980742732144      15.027784892146
      1629    1       43.962169533278      35.975521563930      12.029483002942
      1630    1       45.972581467644      37.981435133260      12.022120231967
      1631    1       43.981452772747      37.986387042467      15.020917652096
      1632    1       45.982232876346      35.989438471742      15.019168543900
      1633    1       -0.005867626696      40.000197278297      11.996549663758
      1634    1        1.995851269095      41.999147462193      11.998160755793
      1635    1       -0.002281422895      41.999889271012      14.998100749291
      1636    1        1.996687557536      39.999898042795      14.997393756801
      1637    1        3.993995483209      39.998880182903      11.997335647283
      1638    1        5.996585939341      41.996703929566      11.999936114250
      1639    1        3.997877194968      41.999044883934      14.999070575080
      1640    1        5.996809827888      39.998633823874      14.998659913569
      1641    1        7.994941037788      39.995123579775      11.999901954099
      1642    1        9.998305674580      41.991126290335      12.003883922183
      1643    1        7.998558819455      41.996899020929      15.001218721077
      1644    1        9.997790066175      39.995048607026      15.001859655392
      1645    1       11.997399403764      39.985911737280      12.006325396621
      1646    1       14.000482005804      41.980064613017      12.011501681746
      1647    1       11.999852055277      41.992047886688      15.005439272516
      1648    1       13.999712605362      39.986263744216      15.008778945165
      1649    1       15.999947500257      39.967171239259      12.019542256783
      1650    1       18.000574076867      41.962371462860      12.023608877088
      1651    1       16.000977888104      41.982754947566      15.012661925426
      1652    1       18.000549789558      39.969089381648      15.021181472753
      1653    1       19.997202105930      39.938916374709      12.040116657260
      1654    1       21.994728598829      41.942374845148      12.037697794251
      1655    1       19.999546938477      41.969294316422      15.022548683115
      1656    1       21.995236462142      39.946801523618      15.037101263427
      1657    1       23.983990933902      39.913203823405      12.060234429783
      1658    1       25.982936730951      41.930385546630      12.047282194798
      1659    1       23.993466932423      41.957391294792      15.031758204063
      1660    1       25.982918144754      39.934231016009      15.047901064324
      1661    1       27.965967075262      39.907148684117      12.067431188268
      1662    1       29.971736342655      41.933105254732      12.047696220056
      1663    1       27.985346096105      41.954844778075      15.035666705968
      1664    1       29.972822120123      39.940881036684      15.047194216426
      1665    1       31.955674265540      39.922286036788      12.059646147209
      1666    1       33.967215129490      41.946406279886      12.040952415415
      1667    1       31.980577104984      41.962061649431      15.033351184678
      1668    1       33.971560409656      39.957757367829      15.038894449236
      1669    1       35.956873516019      39.944989636853      12.045703145815
      1670    1       37.969219963681      41.961796830050      12.032043803743
      1671    1       35.980742825550      41.972738391278      15.027784650065
      1672    1       37.976143547216      39.973229747206      15.029507269913
      1673    1       39.964282982412      39.964282791726      12.032976992626
      1674    1       41.974319253090      41.974319202545      12.024132487285
      1675    1       39.983701749024      41.981939817448      15.021894327688
      1676    1       41.981939810959      39.983701605847      15.021894370835
      1677    1       43.972619713072      39.977444066510      12.023602546273
      1678    1       45.979801204258      41.983053178174      12.018084374368
      1679    1       43.987242780489      41.988369120690      15.016954443645
      1680    1       45.986837070814      39.990034649820      15.016357094973
      1681    1       -0.002970748498      43.999325956205      11.998676829078
      1682    1        1.998232863432      45.998287826497      11.999968524114
      1683    1       -0.001073964352      45.999468652504      14.999496816894
      1684    1        1.998518451749      43.999300028148      14.999327423000
      1685    1        3.997588342603      43.997667546332      11.999956099400
      1686    1        5.999085276392      45.995936383972      12.001755970567
      1687    1        3.999267225449      45.998556459128      15.000611397137
      1688    1        5.998996329201      43.997934156453      15.000845029928
      1689    1        7.998790537698      43.994121801705      12.002544825364
      1690    1       10.000286578248      45.991598357797      12.004835107695
      1691    1        7.999864684334      45.996743139462      15.002530569843
      1692    1        9.999866859826      43.995052929011      15.003615223544
      1693    1       12.000433505413      43.987333382898      12.007247518328
      1694    1       14.001250130153      45.984529347314      12.009599490263
      1695    1       12.000575672831      45.993485063671      15.005565446108
      1696    1       14.000807362116      43.989701022333      15.008160533449
      1697    1       16.001314765922      43.976264259479      12.014664358637
      1698    1       18.000692412348      45.974968167313      12.015886897296
      1699    1       16.000855553481      45.988455305018      15.009821783968
      1700    1       18.000695021910      43.981575040951      15.014517441530
      1701    1       19.999137596815      43.962205333883      12.024067330559
      1702    1       21.997315584458      45.965255656366      12.022393130281
      1703    1       19.999798922791      45.982330508117      15.014791097156
      1704    1       21.998018815703      43.972717102395      15.021390326733
      1705    1       23.992508329710      43.950308984111      12.032482396091
      1706    1       25.991435488192      45.959290984715      12.026932523738
      1707    1       23.996938780682      45.977270951334      15.019155479398
      1708    1       25.992903301032      43.967516194578      15.026212577515
      1709    1       27.983707439447      43.946544711813      12.036298793395
      1710    1       29.985473813651      45.959548834543      12.027988159948
      1711    1       27.993214728969      45.975649542960      15.021456193639
      1712    1       29.988019885746      43.968710697416      15.027171317833
      1713    1       31.977276367980      43.951916936181      12.034587532444
      1714    1       33.981931796121      45.964995488234      12.025882675613
      1715    1       31.990396974660      45.977862718821      15.021224343468
      1716    1       33.985833886971      43.974546956106      15.024801969716
      1717    1       35.975521474085      43.962169708936      12.029482939549
      1718    1       37.981435125818      45.972581526549      12.022120206663
      1719    1       35.989438408649      45.982232916980      15.019168542671
      1720    1       37.986387093706      43.981452900873      15.020917594927
      1721    1       39.977444132867      43.972619756821      12.023602503130
      1722    1       41.983053199100      45.979801215018      12.018084363068
      1723    1       39.990034668389      45.986837101234      15.016357080109
      1724    1       41.988369155048      43.987242779423      15.016954434271
      1725    1       43.980993381187      43.980993366415      12.018405861430
      1726    1       45.985572401676      45.985572396947      12.014505069792
      1727    1       43.991407272341      45.990654183464      15.013550404095
      1728    1       45.990654184361      43.991407262931      15.013550406478
      1729    1       -0.000071647209      -0.000071647223      17.990526079669
      1730    1        1.999906152882       1.999906152838      17.988685528350
      1731    1        0.006803982025       2.006301908144      20.989035168363
      1732    1        2.006301905465       0.006803982435      20.989035169006
      1733    1        3.999915370733      -0.000099346944      17.988825987621
      1734    1        5.999887438189       1.999865815916      17.986451569394
      1735    1        4.008285064893       2.009007926675      20.986631675021
      1736    1        6.007245033060       0.009318425323      20.987009003765
      1737    1        7.999905196003      -0.000134952690      17.987041906671
      1738    1        9.999873583503       1.999813143793      17.984121183038
      1739    1        8.009607170349       2.012673105844      20.983887728681
      1740    1       10.007765206742       0.012361385825      20.984952784930
      1741    1       11.999902960531      -0.000175419735      17.985448349472
      1742    1       13.999873649038       1.999754572741      17.982159877916
      1743    1       12.010191860659       2.017097950775      20.981141074316
      1744    1       14.007416818606       0.015457432199      20.983282217080
      1745    1       15.999914193521      -0.000211449582      17.984495373801
      1746    1       17.999896163388       1.999708676678      17.981313446063
      1747    1       16.009294965363       2.021318270068      20.979125140459
      1748    1       18.005899080682       0.017622420494      20.982614252714
      1749    1       19.999939957077      -0.000228107376      17.984690522524
      1750    1       21.999938577806       1.999701449535      17.982304168489
      1751    1       20.006612080287       2.023505076641      20.978871181414
      1752    1       22.003482520915       0.017718600453      20.983509193407
      1753    1       23.999972245818      -0.000213603319      17.986292094541
      1754    1       25.999982142948       1.999744344128      17.985223726723
      1755    1       24.003029765909       2.022032448605      20.981075508375
      1756    1       26.001088574603       0.015357832245      20.986021552027
      1757    1       27.999997743697      -0.000171110491      17.989027860334
      1758    1       30.000007081705       1.999818040489      17.989257962899
      1759    1       28.000239233333       2.017225095405      20.985310381572
      1760    1       29.999624701323       0.011428537824      20.989513866108
      1761    1       32.000008803483      -0.000117990840      17.992195847088
      1762    1       34.000010730526       1.999890047996      17.993242567981
      1763    1       31.999174034893       2.011326265498      20.990177088554
      1764    1       33.999274176581       0.007404823788      20.993056386519
      1765    1       36.000007926513      -0.000071516036      17.995099741334
      1766    1       38.000003455526       1.999941834488      17.996416913060
      1767    1       35.999416705335       2.006433723949      20.994381990040
      1768    1       37.999601959290       0.004271151395      20.995989771397
      1769    1       40.000001960505      -0.000038954884      17.997368792557
      1770    1       41.999994907828       1.999972578001      17.998606899822
      1771    1       40.000098899607       2.003238557126      20.997404350421
      1772    1       42.000107769501       0.002229862502      20.998107166222
      1773    1       43.999995950554      -0.000019238280      17.998955836540
      1774    1       45.999989083619       1.999988719698      17.999975202801
      1775    1       44.000683807932       2.001447917080      20.999329732017
      1776    1       46.000519020280       0.001049371854      20.999498270145
      1777    1       -0.000099346973       3.999915370666      17.988825986301
      1778    1        1.999865815793       5.999887437962      17.986451565028
      1779    1        0.009318432682       6.007245039099      20.987008999780
      1780    1        2.009007925823       4.008285073611      20.986631672814
      1781    1        3.999873595229       3.999873595078      17.986244755214
      1782    1        5.999823729905       5.999823729306      17.982907000359
      1783    1        4.012280983225       6.011201555800      20.983307147809
      1784    1        6.011201524099       4.012280984296      20.983307156423
      1785    1        7.999845514769       3.999812396254      17.983224739002
      1786    1        9.999779387920       5.999725945140      17.978677369171
      1787    1        8.015675376747       6.017360783850      20.978500923356
      1788    1       10.013109838313       4.017832987153      20.979446027747
      1789    1       11.999826315442       3.999731114335      17.980106632854
      1790    1       13.999752367564       5.999593730809      17.974386943989
      1791    1       12.018524143729       6.026171692231      20.972788021732
      1792    1       14.013663971083       4.024466479507      20.975663972974
      1793    1       15.999832794163       3.999644260890      17.977722632877
      1794    1       17.999775553796       5.999462504154      17.971619271466
      1795    1       16.018731835960       6.036428986824      20.967389668233
      1796    1       18.011609035700       4.030120529392      20.973338838549
      1797    1       19.999877249926       3.999590682723      17.977342416132
      1798    1       21.999862426863       5.999416975405      17.972565527727
      1799    1       20.014234867976       6.043482225415      20.965096406835
      1800    1       22.006948994036       4.031389410895      20.974217191391
      1801    1       23.999944883184       3.999613336369      17.979886081879
      1802    1       25.999962864373       5.999515509704      17.977985126387
      1803    1       24.006452418593       6.041276411757      20.968777033415
      1804    1       26.002000545495       4.026522773837      20.978849475402
      1805    1       27.999997070164       3.999708553744      17.984821223475
      1806    1       30.000011508652       5.999694570000      17.985681574912
      1807    1       28.000508815918       6.029994511430      20.977642782896
      1808    1       29.999350577354       4.018043744813      20.985533248581
      1809    1       32.000013236042       3.999822217092      17.990359827204
      1810    1       34.000008747694       5.999846865559      17.992567463812
      1811    1       31.999022720084       6.017001301006      20.987296603249
      1812    1       33.999187544957       4.010164132249      20.991783294193
      1813    1       36.000005724519       3.999908618306      17.994949213010
      1814    1       37.999990867219       5.999935574830      17.997257068876
      1815    1       36.000072209939       6.007913504686      20.994441877946
      1816    1       38.000081782165       4.004921427292      20.996297660874
      1817    1       39.999993372244       3.999959141834      17.998082709147
      1818    1       41.999978112205       5.999977282429      17.999954157839
      1819    1       40.001335141440       6.003120033633      20.998666688461
      1820    1       42.000933204357       4.002075220443      20.999074420295
      1821    1       43.999984878690       3.999984341076      17.999966821844
      1822    1       45.999973152907       5.999994487579      18.001329728654
      1823    1       44.002019462158       6.000980705684      21.000841509665
      1824    1       46.001410745514       4.000715882216      21.000609290749
      1825    1       -0.000134952895       7.999905195966      17.987041903208
      1826    1        1.999813143061       9.999873583533      17.984121173395
      1827    1        0.012361402582      10.007765196504      20.984952781277
      1828    1        2.012673133878       8.009607187743      20.983887714925
      1829    1        3.999812395669       7.999845513917      17.983224722786
      1830    1        5.999725941911       9.999779384290      17.978677300045
      1831    1        4.017833104938      10.013109886732      20.979445975130
      1832    1        6.017360789379       8.015675508260      20.978500884053
      1833    1        7.999743003994       7.999743001194      17.978162421359
      1834    1        9.999602307406       9.999602291235      17.971068158162
      1835    1        8.025689533066      10.022908888659      20.971130620350
      1836    1       10.022908250288       8.025689447299      20.971130837753
      1837    1       11.999668038980       7.999575791422      17.971962798063
      1838    1       13.999462598215       9.999288217427      17.961405319369
      1839    1       12.035405952889      10.040327702746      20.958861564461
      1840    1       14.027325456420       8.040486679408      20.962079589023
      1841    1       15.999629636316       7.999345604124      17.965865615089
      1842    1       17.999407787045       9.998848234832      17.952419338032
      1843    1       16.042526569994      10.066907763829      20.943060927239
      1844    1       18.026227333510       8.056734320372      20.954062781986
      1845    1       19.999696139441       7.999147922999      17.963115464929
      1846    1       21.999589218025       9.998576211056      17.951369936094
      1847    1       20.037266451703      10.092411915144      20.930840434601
      1848    1       22.016669488899       8.063452118286      20.953242311993
      1849    1       23.999861685043       7.999171147781      17.967383929073
      1850    1       25.999883978195       9.998863682228      17.963326644210
      1851    1       24.018008750318      10.090929900216      20.936883740417
      1852    1       26.004767517895       8.051791605798      20.963470967799
      1853    1       27.999989708163       7.999435591618      17.977697474157
      1854    1       29.999999523239       9.999428293494      17.980680537030
      1855    1       28.002807024238      10.058677210983      20.961131699679
      1856    1       29.999455751521       8.030424397189      20.978859177068
      1857    1       32.000010708039       7.999720767515      17.988444754239
      1858    1       33.999974333863       9.999793400922      17.993371752551
      1859    1       32.000874740289      10.025901437329      20.984120626085
      1860    1       34.000168298116       8.013671706805      20.991057303006
      1861    1       35.999986061035       7.999890501482      17.995875695667
      1862    1       37.999944147228       9.999941763211      17.999899896747
      1863    1       36.003441443823      10.008668109219      20.996654967712
      1864    1       38.002041100650       8.004990126916      20.997968794488
      1865    1       39.999966418023       7.999965063666      17.999934038971
      1866    1       41.999936992527       9.999989894101      18.002620328425
      1867    1       40.004844966279      10.002160896475      21.001847628774
      1868    1       42.003032551312       8.001408581678      21.001212467681
      1869    1       43.999960022983       7.999992746642      18.001830704327
      1870    1       45.999942594753      10.000003104241      18.003510278987
      1871    1       44.004838817255      10.000128677176      21.003597270079
      1872    1       46.003184195420       8.000131484981      21.002520273135
      1873    1       -0.000175419759      11.999902960963      17.985448352930
      1874    1        1.999754573533      13.999873650784      17.982159901904
      1875    1        0.015457394754      14.007416779034      20.983282238674
      1876    1        2.017097989684      12.010191803326      20.981141072539
      1877    1        3.999731111634      11.999826316444      17.980106608133
      1878    1        5.999593721723      13.999752377539      17.974386915434
      1879    1        4.024466497943      14.013663669634      20.975664029527
      1880    1        6.026172238705      12.018524237202      20.972787799754
      1881    1        7.999575769984      11.999668021239      17.971962450337
      1882    1        9.999288037777      13.999462500854      17.961403190189
      1883    1        8.040489407985      14.027325032631      20.962078612137
      1884    1       10.040328638527      12.035409681270      20.958860036519
      1885    1       11.999330069323      11.999329945617      17.959695935237
      1886    1       13.998709803158      13.998708398356      17.939465953305
      1887    1       12.068426141805      14.058927071102      20.935813318627
      1888    1       14.058900408058      12.068415282019      20.935827711177
      1889    1       15.999025957393      11.998650223531      17.943227416324
      1890    1       17.997811735835      13.996815435162      17.906840240339
      1891    1       16.107481932644      14.127807113144      20.884133823673
      1892    1       18.070616399858      12.119500574978      20.904153677625
      1893    1       19.998943084959      11.997675379727      17.929449560491
      1894    1       21.997614918091      13.993917472185      17.885069963218
      1895    1       20.124240598131      14.224128366265      20.810910338608
      1896    1       22.053115259381      12.153552020601      20.887592911149
      1897    1       23.999432134495      11.997498287346      17.936344229085
      1898    1       25.999009859052      13.995262459795      17.921773438810
      1899    1       24.080510432464      14.233876533932      20.816039226139
      1900    1       26.018896034460      12.120170296940      20.918852342068
      1901    1       27.999899482222      11.998606065244      17.964225597954
      1902    1       29.999720066753      13.998680423750      17.976039497343
      1903    1       28.028206584232      14.130333676293      20.917477835652
      1904    1       30.004890743396      12.055052796584      20.967341637636
      1905    1       31.999934567782      11.999543866519      17.988291848449
      1906    1       33.999762620306      13.999750841166      17.999694827703
      1907    1       32.016991783512      14.038632979512      20.986279080500
      1908    1       34.006758613223      12.016880330917      20.993816267223
      1909    1       35.999895383493      11.999890674210      17.999836166024
      1910    1       37.999797822939      13.999971556536      18.006344230232
      1911    1       36.016369821125      14.007155201558      21.005626388053
      1912    1       38.008409164392      12.003650590717      21.003043639339
      1913    1       39.999892921798      11.999984463904      18.003942807026
      1914    1       41.999848565921      14.000008127071      18.007297636892
      1915    1       40.013460973664      14.000272924926      21.008712156888
      1916    1       42.007783436063      12.000141461409      21.005405872786
      1917    1       43.999909752583      12.000005252431      18.004952619611
      1918    1       45.999890698795      14.000010678168      18.006690781164
      1919    1       44.010079828984      13.999207103879      21.008113160468
      1920    1       46.006372306135      11.999435478042      21.005539094332
      1921    1       -0.000211448417      15.999914193703      17.984495392578
      1922    1        1.999708680272      17.999896161850      17.981313487224
      1923    1        0.017622357889      18.005899134795      20.982614271392
      1924    1        2.021318071779      16.009294884113      20.979125233720
      1925    1        3.999644268548      15.999832800319      17.977722765979
      1926    1        5.999462556048      17.999775562795      17.971619888243
      1927    1        4.030119726072      18.011609159105      20.973339164366
      1928    1        6.036428175395      16.018730378784      20.967390309443
      1929    1        7.999345598782      15.999629724990      17.965866079011
      1930    1        9.998848810717      17.999408526452      17.952427392572
      1931    1        8.056725147907      18.026222493638      20.954068159386
      1932    1       10.066920494823      16.042516227680      20.943057910887
      1933    1       11.998648210994      15.999025493880      17.943211253460
      1934    1       13.996784392762      17.997819002990      17.906707548507
      1935    1       12.119510497076      18.070482896369      20.904191670658
      1936    1       14.127946880067      16.107699572413      20.883949709293
      1937    1       15.996786662613      15.996757171095      17.896262586452
      1938    1       17.979991783841      17.977838493710      17.741434227947
      1939    1       16.251696272521      18.208725137036      20.743026260881
      1940    1       18.207788251540      16.250542992744      20.745069498722
      1941    1       19.989677985279      15.985586257323      17.799707084982
      1942    1       21.015490413740      17.017391439621      17.805926494864
      1943    1       20.317509610369      18.349655151660      20.585178185839
      1944    1       22.212282325533      16.336098423999      20.656706728207
      1945    1       23.978226875603      15.956916647920      17.759640876353
      1946    1       25.013693994813      17.015676326917      17.902411101337
      1947    1       24.350026302304      18.374422302352      20.749127706864
      1948    1       26.147986243923      16.272345042505      20.788261593937
      1949    1       27.996599163261      15.992229217109      17.935015054138
      1950    1       29.991243131290      17.988705456252      17.988756287464
      1951    1       28.244943806064      18.277704840838      20.915321612414
      1952    1       30.061969613830      16.107147355025      20.961098317871
      1953    1       31.999225607825      15.999163548132      17.999179361499
      1954    1       33.998671815146      17.999720775504      18.023301112912
      1955    1       32.104368057220      18.062869053418      21.035485740622
      1956    1       34.037468362171      16.017779770001      21.012464426209
      1957    1       35.999552003451      15.999929841268      18.011237645033
      1958    1       37.999430332864      17.999998324978      18.019069693055
      1959    1       36.054669753826      18.005193960865      21.032144854402
      1960    1       38.025566829211      16.001036014301      21.015518770194
      1961    1       39.999723152541      16.000009934523      18.011368474490
      1962    1       41.999694792586      18.000011944910      18.014233478083
      1963    1       40.030331891469      17.999453668344      21.020991735683
      1964    1       42.016894952022      15.999036919300      21.012570923133
      1965    1       43.999822905009      16.000013327543      18.009560705142
      1966    1       45.999817843781      18.000007496481      18.010711360610
      1967    1       44.018041801915      17.999316040949      21.014421917318
      1968    1       46.011296371971      15.999160907850      21.009769032077
      1969    1       -0.000228107872      19.999939955670      17.984690508174
      1970    1        1.999701443449      21.999938575226      17.982304071712
      1971    1        0.017718733284      22.003482565910      20.983509132342
      1972    1        2.023505112478      20.006612358246      20.978871135629
      1973    1        3.999590685061      19.999877236010      17.977342385353
      1974    1        5.999416903005      21.999862377827      17.972564541675
      1975    1        4.031390575276      22.006949609355      20.974216601148
      1976    1        6.043480848894      20.014237557388      20.965096701124
      1977    1        7.999148133194      19.999695986178      17.963116906778
      1978    1        9.998574957518      21.999587501084      17.951354578948
      1979    1        8.063465380850      22.016681715278      20.953233789240
      1980    1       10.092356600335      20.037283964252      20.930869608805
      1981    1       11.997687973409      19.998946006995      17.929542540891
      1982    1       13.993974230437      21.997471215005      17.884980743361
      1983    1       12.153666674519      22.053450582426      20.887435848136
      1984    1       14.223311653332      20.123526073078      20.812072838024
      1985    1       15.985526668317      19.991043134545      17.802708764433
      1986    1       17.019634576261      21.015985209414      17.798290277287
      1987    1       16.335382221000      22.214201221294      20.654987834192
      1988    1       18.350745800251      20.318056417710      20.588214931148
      1989    1       19.012735185911      19.013053896082      17.823680708304
      1990    1       21.007275389074      21.007276310050      17.928925390682
      1991    1       20.436308018754      22.436915385121      20.781503923336
      1992    1       22.436417976752      20.436398309305      20.781398706642
      1993    1       23.007899815615      19.008445284463      17.924379742349
      1994    1       25.007015374757      21.007026123839      17.998337213436
      1995    1       24.509928935548      22.508224857332      20.937509541529
      1996    1       26.438992097141      20.438806910004      20.925331311055
      1997    1       27.010615962928      19.010941038229      17.996863036852
      1998    1       29.016041016009      21.012778758587      18.095762001926
      1999    1       28.440214840526      22.441048849000      21.067847841355
      2000    1       30.275000262814      20.245139417999      21.079370922460
      2001    1       31.990609914902      19.996558934426      18.071448900166
      2002    1       33.995365980589      21.999006269632      18.077103481758
      2003    1       32.272540453269      22.155138970821      21.204032488143
      2004    1       34.130539229629      20.029913212081      21.082003271615
      2005    1       35.998603408000      19.999891192596      18.035463724068
      2006    1       37.998850272904      21.999886661961      18.036769512924
      2007    1       36.120949961349      22.018884230659      21.081530888842
      2008    1       38.058756854506      20.002798921567      21.038786776546
      2009    1       39.999433346457      19.999990819678      18.022245122496
      2010    1       41.999510965994      21.999964091740      18.022076497906
      2011    1       40.052243131455      22.004650261630      21.036737304008
      2012    1       42.030099375694      20.000436897415      21.022365685196
      2013    1       43.999707252619      19.999997852890      18.015171446354
      2014    1       45.999742387165      21.999982765222      18.014814869374
      2015    1       44.026725559476      22.001935426109      21.021240413618
      2016    1       46.017294526825      20.000194254526      21.014704707696
      2017    1       -0.000213605149      23.999972246644      17.986292066736
      2018    1        1.999744344678      25.999982147383      17.985223739874
      2019    1        0.015357829330      26.001088476781      20.986021553361
      2020    1        2.022032801460      24.003029596065      20.981075353384
      2021    1        3.999613315930      23.999944891905      17.979885826660
      2022    1        5.999515536022      25.999962920848      17.977985500397
      2023    1        4.026522499242      26.001999633283      20.978849596886
      2024    1        6.041280622199      24.006450411263      20.968774954422
      2025    1        7.999170741860      23.999861839357      17.967379991304
      2026    1        9.998865111702      25.999885172474      17.963341036104
      2027    1        8.051782568570      26.004755791117      20.963475736563
      2028    1       10.091007775077      24.017970717953      20.936833139774
      2029    1       11.997476451336      23.999437853072      17.936198888554
      2030    1       13.995488863161      25.999052485466      17.923183369356
      2031    1       12.119833541953      26.018740146177      20.919131773240
      2032    1       14.234992364110      24.079552286231      20.814493668883
      2033    1       15.732202311690      23.866833343141      17.558448356815
      2034    1       17.016661046663      25.013137673559      17.898638531787
      2035    1       16.272030287122      26.150145716292      20.793405692353
      2036    1       18.375652651787      24.348078300110      20.750685665503
      2037    1       19.008429521444      23.007913663480      17.924435876523
      2038    1       21.007025510779      25.007016254220      17.998340286591
      2039    1       20.438358495703      26.439148024766      20.924995344044
      2040    1       22.508225627651      24.509927814368      20.937509722609
      2041    1       23.006391060840      23.006391060840      17.998425172375
      2042    1       25.007182928180      25.007183549974      18.067373713003
      2043    1       24.511500200402      26.509932322517      21.056520114462
      2044    1       26.509933102039      24.511499684182      21.056519930882
      2045    1       27.008288834349      23.007805903954      18.071566810662
      2046    1       29.018063533943      25.014905664515      18.191596828525
      2047    1       28.441178234617      26.442191428476      21.209034961952
      2048    1       30.379025551240      24.354612491581      21.239811276875
      2049    1       31.374530264241      23.329778552182      18.490414144988
      2050    1       33.993602334224      25.997314264972      18.118275403875
      2051    1       32.337598443932      26.219577368134      21.349086508643
      2052    1       34.238333638962      24.081406264501      21.189047374884
      2053    1       35.997403292863      23.999429007216      18.064571824672
      2054    1       37.998537211529      25.999581419004      18.049302725735
      2055    1       36.157369344626      26.054399039780      21.115424848287
      2056    1       38.092467558989      24.017991918047      21.064052083858
      2057    1       39.999157060607      23.999862400025      18.032860010637
      2058    1       41.999406829979      25.999861920487      18.027681272301
      2059    1       40.064621570434      26.016778482805      21.047447983000
      2060    1       42.041791351932      24.006396904268      21.031495736919
      2061    1       43.999608718508      23.999945467749      18.020223524469
      2062    1       45.999697601506      25.999938665802      18.017814032513
      2063    1       44.031822955226      26.006948955120      21.026029573099
      2064    1       46.022250497350      24.002994125671      21.019040631034
      2065    1       -0.000171109037      27.999997744326      17.989027885398
      2066    1        1.999818043847      30.000007079843      17.989258021613
      2067    1        0.011428451101      29.999624731588      20.989513907406
      2068    1        2.017224787008      28.000239151295      20.985310520233
      2069    1        3.999708571097      27.999997071944      17.984821474059
      2070    1        5.999694585647      30.000011478303      17.985681855890
      2071    1        4.018043266221      29.999351058972      20.985533524413
      2072    1        6.029990867872      28.000509152252      20.977644660544
      2073    1        7.999435875129      27.999989626787      17.977700828718
      2074    1        9.999427856243      29.999999179863      17.980676690432
      2075    1        8.030425429998      29.999461901854      20.978859624368
      2076    1       10.058634091034      28.002839342857      20.961163717813
      2077    1       11.998610687308      27.999893367872      17.964269908292
      2078    1       13.998655827748      29.999736677669      17.975799163285
      2079    1       12.055186389910      30.004885644522      20.967248387230
      2080    1       14.130820255389      28.028936437255      20.917192847254
      2081    1       15.991006561667      27.996759598854      17.927592664219
      2082    1       17.991005268943      29.988615026844      18.007613542308
      2083    1       16.106330728172      30.060723359189      20.961016065759
      2084    1       18.275095377918      28.242057375478      20.912228275730
      2085    1       19.010668956496      27.010910746691      17.998999550076
      2086    1       21.013283984914      29.015028227206      18.091454161641
      2087    1       20.248329427537      30.277560305674      21.077581409764
      2088    1       22.441003571675      28.440659141253      21.067555896691
      2089    1       23.007796801237      27.008303902087      18.071621982220
      2090    1       25.014487959144      29.016300825481      18.185227660772
      2091    1       24.356242870510      30.377645292781      21.241568116896
      2092    1       26.441786324430      28.441284034789      21.209094794033
      2093    1       27.012132863021      27.012386776927      18.168933029299
      2094    1       29.975850055453      29.973006866553      18.278857536688
      2095    1       28.322045170347      30.351859901736      21.411237234014
      2096    1       30.352997025104      28.322822962210      21.407952763605
      2097    1       31.983743387238      27.989955399180      18.207506105781
      2098    1       33.996615322371      29.997712435455      18.095952827617
      2099    1       32.259012897924      30.214871082349      21.267556674440
      2100    1       34.229723058542      28.126966871617      21.194678609572
      2101    1       35.997598014027      27.998911445136      18.071938674996
      2102    1       37.998813807675      29.999393748751      18.048402785705
      2103    1       36.123112007382      30.072332111197      21.098599394484
      2104    1       38.094628818081      28.037928044366      21.070638843819
      2105    1       39.999127945482      27.999691496413      18.037366732890
      2106    1       41.999451171158      29.999772303643      18.028726652914
      2107    1       40.058011773453      30.026661596166      21.046764518768
      2108    1       42.044272130601      28.014365282195      21.035379664818
      2109    1       43.999583773570      27.999876370799      18.022869348482
      2110    1       45.999704011750      29.999895250719      18.018858242556
      2111    1       44.030641463085      30.011730218383      21.026992293472
      2112    1       46.023835283484      28.006640172889      21.021330978390
      2113    1       -0.000117990514      32.000008802772      17.992195855454
      2114    1        1.999890046623      34.000010730030      17.993242546838
      2115    1        0.007404848271      33.999274201520      20.993056379400
      2116    1        2.011326266521      31.999174164629      20.990177104500
      2117    1        3.999822214329      32.000013231204      17.990359802732
      2118    1        5.999846852359      34.000008753920      17.992567236118
      2119    1        4.010164429829      33.999187528148      20.991783159765
      2120    1        6.017002408264      31.999023272560      20.987296177471
      2121    1        7.999720680162      32.000010712748      17.988443628354
      2122    1        9.999793407823      33.999974437354      17.993371134065
      2123    1        8.013673143063      34.000166403237      20.991056160675
      2124    1       10.025916202893      32.000865714759      20.984110396439
      2125    1       11.999543303925      31.999935735690      17.988280677318
      2126    1       13.999752391660      33.999761179109      17.999717621774
      2127    1       12.016861612055      34.006754664637      20.993823789846
      2128    1       14.038490472541      32.016909318259      20.986331273745
      2129    1       15.999196727556      31.999194819996      17.999556934617
      2130    1       17.999702270295      33.998695060592      18.023065321791
      2131    1       16.017840985267      34.037629696592      21.012538321850
      2132    1       18.063973862702      32.105406593943      21.035801740217
      2133    1       19.996322224615      31.992108866850      18.062828209822
      2134    1       21.998975141491      33.995100539504      18.078713123773
      2135    1       20.029230703480      34.129904730793      21.081532965395
      2136    1       22.152549234386      32.272561855949      21.208468026783
      2137    1       23.971107508675      31.944437787250      18.259469526668
      2138    1       25.997489849843      33.993562192863      18.118028882209
      2139    1       24.082568867324      34.237327990029      21.187624287881
      2140    1       26.217780659767      32.338249577561      21.346652558382
      2141    1       27.988143812253      31.983637556420      18.211820013767
      2142    1       29.997702881348      33.996650923910      18.095807868012
      2143    1       28.127683716050      34.230637724277      21.195984299281
      2144    1       30.213941558529      32.257798096458      21.265356545637
      2145    1       31.996603924341      31.996569015923      18.107035492326
      2146    1       33.998662052548      33.998660453379      18.061889548564
      2147    1       32.110892165785      34.132012892767      21.119795752938
      2148    1       34.132170698037      32.111132312888      21.120004889881
      2149    1       35.998599836846      31.998993171385      18.057981694365
      2150    1       37.999268199274      33.999448603858      18.039250500663
      2151    1       36.070348636692      34.060520109370      21.065776501228
      2152    1       38.068684808978      32.043494809357      21.058207860542
      2153    1       39.999329132999      31.999621952271      18.034643269210
      2154    1       41.999584987045      33.999747850418      18.025946409166
      2155    1       40.041410411701      34.027874539985      21.038593415348
      2156    1       42.037171571014      32.019026637271      21.033108703622
      2157    1       43.999637514585      31.999830471508      18.022527140572
      2158    1       45.999750374905      33.999871986964      18.018023467840
      2159    1       44.024914671653      34.013865022762      21.024657001795
      2160    1       46.021662812726      32.009396112409      21.021109986190
      2161    1       -0.000071516460      36.000007926540      17.995099733044
      2162    1        1.999941834177      38.000003456012      17.996416902988
      2163    1        0.004271167145      37.999601947401      20.995989762295
      2164    1        2.006433792945      35.999416677067      20.994381955081
      2165    1        3.999908616295      36.000005726345      17.994949166575
      2166    1        5.999935576673      37.999990868856      17.997257079134
      2167    1        4.004921427075      38.000081705829      20.996297641345
      2168    1        6.007913623942      36.000071842089      20.994441734358
      2169    1        7.999890508069      35.999986072806      17.995875681507
      2170    1        9.999941780599      37.999944130809      17.999900264108
      2171    1        8.004989632748      38.002041155592      20.997968999419
      2172    1       10.008665337098      36.003441399036      20.996656096536
      2173    1       11.999890808723      35.999895257434      17.999838577918
      2174    1       13.999971456850      37.999797802700      18.006343774342
      2175    1       12.003650379767      38.008412037642      21.003044889999
      2176    1       14.007157011700      36.016389791369      21.005635265540
      2177    1       15.999928660515      35.999552416685      18.011227734120
      2178    1       17.999998634941      37.999430853114      18.019064919009
      2179    1       16.001046249387      38.025552521256      21.015508412016
      2180    1       18.005212377285      36.054529790006      21.032042917329
      2181    1       19.999897805186      35.998599629030      18.035501394804
      2182    1       21.999885481426      37.998848548221      18.036786551131
      2183    1       20.002762155124      38.058797874343      21.038818442500
      2184    1       22.019018132977      36.121329127755      21.081852479166
      2185    1       23.999421266429      35.997426355694      18.064422605177
      2186    1       25.999583270515      37.998538769573      18.049284616999
      2187    1       24.018038261322      38.092388951085      21.064000560167
      2188    1       26.054039364356      36.157212183911      21.115225822990
      2189    1       27.998908650328      35.997583622652      18.072041797599
      2190    1       29.999392934644      37.998813129739      18.048411915443
      2191    1       28.037905927419      38.094687439953      21.070669502127
      2192    1       30.072481402251      36.123107368885      21.098646301804
      2193    1       31.998993657763      35.998602115520      18.057963793883
      2194    1       33.999448709625      37.999268399587      18.039248165368
      2195    1       32.043506601109      38.068671230902      21.058204813692
      2196    1       34.060490666311      36.070336380375      21.065760342526
      2197    1       35.999311152215      35.999311014620      18.041016892315
      2198    1       37.999593124712      37.999593107008      18.029358043106
      2199    1       36.036214769665      38.041283690026      21.041925334612
      2200    1       38.041284739915      36.036218848304      21.041927024176
      2201    1       39.999565999733      35.999660894963      18.028437783902
      2202    1       41.999720542371      37.999775311126      18.021586412770
      2203    1       40.026212941983      38.023360034273      21.029319228438
      2204    1       42.026691426793      36.018853182545      21.027612862593
      2205    1       43.999726063712      35.999823495632      18.020122644935
      2206    1       45.999810030342      37.999871734972      18.016042872309
      2207    1       44.018145756152      38.013317884554      21.020813245715
      2208    1       46.017380370181      36.010331088345      21.019077351990
      2209    1       -0.000038954928      40.000001960639      17.997368790240
      2210    1        1.999972578145      41.999994907875      17.998606901765
      2211    1        0.002229859839      42.000107765170      20.998107166087
      2212    1        2.003238551851      40.000098882228      20.997404347921
      2213    1        3.999959142334      39.999993372508      17.998082714109
      2214    1        5.999977283063      41.999978111600      17.999954175263
      2215    1        4.002075194602      42.000933211496      20.999074431754
      2216    1        6.003119928797      40.001335162833      20.998666733224
      2217    1        7.999965066651      39.999966415187      17.999934111520
      2218    1        9.999989892633      41.999936990476      18.002620343058
      2219    1        8.001408553313      42.003032657224      21.001212514866
      2220    1       10.002160803321      40.004845470355      21.001847848805
      2221    1       11.999984452965      39.999892913721      18.003942817169
      2222    1       14.000008119997      41.999848579056      18.007297405038
      2223    1       12.000141832814      42.007783347156      21.005405739926
      2224    1       14.000274908857      40.013459685093      21.008711052585
      2225    1       16.000009923396      39.999723244052      18.011367272026
      2226    1       18.000011976830      41.999694779602      18.014233728654
      2227    1       15.999036434912      42.016893736482      21.012570436476
      2228    1       17.999447486781      40.030330049777      21.020991788176
      2229    1       19.999990921844      39.999433055596      18.022248573953
      2230    1       21.999964033462      41.999510931964      18.022076964157
      2231    1       20.000436335035      42.030103171248      21.022367663895
      2232    1       22.004662070498      40.052254057225      21.036743132783
      2233    1       23.999862211777      39.999157479399      18.032856013461
      2234    1       25.999861970522      41.999406911592      18.027680184394
      2235    1       24.006399259581      42.041787073148      21.031493618267
      2236    1       26.016765897225      40.064606319369      21.047438288679
      2237    1       27.999691674696      39.999127728663      18.037368137748
      2238    1       29.999772295473      41.999451114725      18.028727311420
      2239    1       28.014362309518      42.044273428154      21.035379890901
      2240    1       30.026666575578      40.058021934142      21.046770436362
      2241    1       31.999621853869      39.999329135417      18.034643811736
      2242    1       33.999747839329      41.999584996587      18.025946383466
      2243    1       32.019028201523      42.037172498440      21.033109417292
      2244    1       34.027875057306      40.041407462851      21.038592368583
      2245    1       35.999660914172      39.999566023338      18.028437406371
      2246    1       37.999775315032      41.999720545892      18.021586338370
      2247    1       36.018853089346      42.026690837210      21.027612624272
      2248    1       38.023359342550      40.026212845617      21.029318991106
      2249    1       39.999737957532      39.999737954502      18.022114199297
      2250    1       41.999820710178      41.999820709535      18.017283263299
      2251    1       40.015946316451      42.017670381812      21.021782300102
      2252    1       42.017670388321      40.015946457786      21.021782342565
      2253    1       43.999809160065      39.999843004098      18.016958522485
      2254    1       45.999863755820      41.999885802500      18.013681046785
      2255    1       44.012475621860      42.011374065438      21.016883739701
      2256    1       46.012871891784      40.009744808626      21.016290267287
      2257    1       -0.000019238235      43.999995950562      17.998955837293
      2258    1        1.999988719744      45.999989083575      17.999975204344
      2259    1        0.001049369599      46.000519021145      20.999498271240
      2260    1        2.001447909847      44.000683810352      20.999329735367
      2261    1        3.999984341235      43.999984878538      17.999966826720
      2262    1        5.999994487542      45.999973152756      18.001329730825
      2263    1        4.000715879420      46.001410752747      21.000609294210
      2264    1        6.000980697039      44.002019488104      21.000841521600
      2265    1        7.999992746416      43.999960022449      18.001830710220
      2266    1       10.000003103742      45.999942595035      18.003510269265
      2267    1        8.000131501830      46.003184202111      21.002520271278
      2268    1       10.000128752494      44.004838823766      21.003597253113
      2269    1       12.000005250496      43.999909754504      18.004952573695
      2270    1       14.000010678594      45.999890700267      18.006690758061
      2271    1       11.999435510090      46.006372237131      21.005539058591
      2272    1       13.999207138587      44.010079521436      21.008113018398
      2273    1       16.000013332279      43.999822908384      18.009560671397
      2274    1       18.000007498552      45.999817840442      18.010711419455
      2275    1       15.999160776168      46.011296359454      21.009769043463
      2276    1       17.999315521413      44.018042255065      21.014422186870
      2277    1       19.999997851908      43.999707234182      18.015171712190
      2278    1       21.999982760597      45.999742386215      18.014814888508
      2279    1       20.000194325159      46.017294856184      21.014704856569
      2280    1       22.001936370040      44.026725930439      21.021240579112
      2281    1       23.999945457584      43.999608739412      18.020223266484
      2282    1       25.999938668331      45.999697608114      18.017813928861
      2283    1       24.002994319481      46.022250139080      21.019040473643
      2284    1       26.006948345466      44.031821678062      21.026028929518
      2285    1       27.999876385925      43.999583771955      18.022869304107
      2286    1       29.999895252480      45.999704008008      18.018858284425
      2287    1       28.006639877068      46.023835229858      21.021330923249
      2288    1       30.011730059220      44.030642312933      21.026992635358
      2289    1       31.999830465024      43.999637506137      18.022527284554
      2290    1       33.999871985100      45.999750374008      18.018023493977
      2291    1       32.009396194474      46.021663026294      21.021110085887
      2292    1       34.013865348758      44.024914660619      21.024657066287
      2293    1       35.999823494504      43.999726066586      18.020122619249
      2294    1       37.999871734930      45.999810031120      18.016042862187
      2295    1       36.010331150503      46.017380330103      21.019077350786
      2296    1       38.013317833887      44.018145629644      21.020813189452
      2297    1       39.999843005008      43.999809160697      18.016958505159
      2298    1       41.999885802741      45.999863755952      18.013681042148
      2299    1       40.009744790326      46.012871861819      21.016290252651
      2300    1       42.011374031604      44.012475622891      21.016883730471
      2301    1       43.999871671488      43.999871671327      18.013891943055
      2302    1       45.999904866689      45.999904866643      18.011416095380
      2303    1       44.008400132128      46.009136386689      21.013503604097
      2304    1       46.009136385811      44.008400141378      21.013503606446
      2305    1        0.010953255377       0.010953256938      23.988424334078
      2306    1        2.014108638321       2.014108642806      23.985713577820
      2307    1        0.017334110736       2.016064469141      26.984759930499
      2308    1        2.016064465821       0.017334111423      26.984759931579
      2309    1        4.012739055846       0.014944197660      23.985914133617
      2310    1        6.016572006929       2.019736818254      23.982218519521
      2311    1        4.020374047020       2.022134206249      26.980704570105
      2312    1        6.017904932067       0.022974210021      26.981318650137
      2313    1        8.014020936535       0.019920805088      23.983104637870
      2314    1       10.018169449450       2.026783818151      23.978280410504
      2315    1        8.022670608613       2.029807245946      26.975888836854
      2316    1       10.018562332305       0.029384774571      26.977670920327
      2317    1       12.014092238721       0.025369347061      23.980375154169
      2318    1       14.017724398216       2.034215068606      23.974601215649
      2319    1       12.023019302412       2.038308016639      26.970896074801
      2320    1       14.017193824002       0.035418533221      26.974542233909
      2321    1       16.012275659031       0.029989862058      23.978457696251
      2322    1       18.014318016643       2.039613997768      23.972513693046
      2323    1       16.020221220091       2.045561101661      26.967063077257
      2324    1       18.013429600336       0.039151813110      26.973046594677
      2325    1       20.008556191067       0.031893065886      23.978280577500
      2326    1       22.008519895410       2.040001486965      23.973481345186
      2327    1       20.014205637256       2.048495701565      26.966246919026
      2328    1       22.008048980803       0.038690465695      26.974203139234
      2329    1       24.004067031297       0.029723754013      23.980403427094
      2330    1       26.002736152878       2.034300266119      23.977851382003
      2331    1       24.006908299046       2.044926174084      26.969652128844
      2332    1       26.002896498495       0.033601994828      26.978130961792
      2333    1       28.000532722145       0.023973054434      23.984428430392
      2334    1       29.999354985266       2.024847067041      23.984189329220
      2335    1       28.001271924752       2.035727842722      26.976529191239
      2336    1       29.999665616972       0.025547704488      26.983737957664
      2337    1       31.998938445597       0.016807026430      23.989150041003
      2338    1       33.998743315489       2.015445014894      23.990370901176
      2339    1       31.998896871436       2.024480648495      26.984494773348
      2340    1       33.998741965631       0.017154615900      26.989420691640
      2341    1       35.998991769317       0.010415878985      23.993386191353
      2342    1       37.999660960125       2.008437751800      23.995094047759
      2343    1       35.999170975968       2.014686226045      26.991324457597
      2344    1       37.999343907402       0.010328071347      26.994044933252
      2345    1       39.999802361244       0.005811927521      23.996566485184
      2346    1       42.000842497259       2.004108934366      23.998169862190
      2347    1       40.000540854412       2.007840626736      26.996112573668
      2348    1       42.000456462504       0.005640320744      26.997275892548
      2349    1       44.000666158726       0.002940904244      23.998682699421
      2350    1       46.001694360600       2.001748808431      23.999968661115
      2351    1       44.001865475493       2.003724213928      26.999031684895
      2352    1       46.001441032398       0.002781170701      26.999302067157
      2353    1        0.014944200330       4.012739062505      23.985914130551
      2354    1        2.019736828378       6.016572026816      23.982218508940
      2355    1        0.022974217097       6.017904937778      26.981318644038
      2356    1        2.022134204767       4.020374055985      26.980704566751
      2357    1        4.018575161069       4.018575175052      23.981906223179
      2358    1        6.025083258884       6.025083306672      23.976330759480
      2359    1        4.028735760526       6.026238547047      26.974913056628
      2360    1        6.026238521690       4.028735763554      26.974913067764
      2361    1        8.022047333351       4.026738123166      23.976843950708
      2362    1       10.030078430966       6.037290329530      23.968642938761
      2363    1        8.034307188453       6.037936471135      26.966375741541
      2364    1       10.029024191949       4.039294622836      26.967995965075
      2365    1       12.023959177770       4.036942380634      23.971116715360
      2366    1       14.032109558451       6.052340990255      23.959977353279
      2367    1       12.037441589886       6.052522862779      26.956216661689
      2368    1       14.028527171859       4.050462086012      26.961127063068
      2369    1       16.022318767189       4.047014636240      23.966122086722
      2370    1       18.027826855621       6.065490828593      23.953350329717
      2371    1       16.034972818815       6.066694046227      26.946945234039
      2372    1       18.023199960234       4.058479224204      26.956842817959
      2373    1       20.016113725781       4.052426041072      23.964379360952
      2374    1       22.016967445907       6.068473853224      23.953580956355
      2375    1       20.025436741252       6.073842014486      26.943388748384
      2376    1       22.014008231708       4.058772602075      26.958093704588
      2377    1       24.007513023904       4.048968053227      23.967986479626
      2378    1       26.005351130152       6.057050533176      23.962737283785
      2379    1       24.012422046992       6.068227662977      26.949557838122
      2380    1       26.004944589976       4.049835940352      26.965621966131
      2381    1       28.000932405006       4.037469820661      23.976123413290
      2382    1       29.999447515436       6.037530916934      23.976441386056
      2383    1       28.002724573017       6.051453732940      26.963744350342
      2384    1       29.999845679398       4.035424510113      26.976577994664
      2385    1       31.998688433038       4.023686642921      23.985325428942
      2386    1       33.999421969415       6.020037679338      23.988370047731
      2387    1       31.999663624442       6.031817753664      26.979331004607
      2388    1       33.999142519588       4.021394264289      26.986869010585
      2389    1       35.999496015908       4.012726262364      23.992657998819
      2390    1       38.001542575127       6.008994759867      23.995960243878
      2391    1       36.001064230550       6.016492595141      26.991052804196
      2392    1       38.000700174343       4.011207135676      26.994230881169
      2393    1       40.001106523346       4.005950726748      23.997350236847
      2394    1       42.003264686231       6.003381801698      23.999936423958
      2395    1       40.003428056647       6.007264147943      26.997912962519
      2396    1       42.002484176882       4.005122530073      26.998607694677
      2397    1       44.002309042576       4.002387562287      23.999956306694
      2398    1       46.004024565403       6.000904109278      24.001747262705
      2399    1       44.004993457584       6.002593980415      27.001265974106
      2400    1       46.003633670928       4.001943533964      27.000880301892
      2401    1        0.019920823315       8.014020939032      23.983104629474
      2402    1        2.026783874309      10.018169443244      23.978280386442
      2403    1        0.029384788648      10.018562321357      26.977670915687
      2404    1        2.029807267085       8.022670620647      26.975888818870
      2405    1        4.026738164333       8.022047396494      23.976843910392
      2406    1        6.037290509896      10.030078640385      23.968642768513
      2407    1        4.039294686534      10.029024211431      26.967995911607
      2408    1        6.037936466019       8.034307262557      26.966375702261
      2409    1        8.034870854321       8.034871034617      23.967742414779
      2410    1       10.050064042750      10.050064792651      23.953692166269
      2411    1        8.050831914692      10.045436346340      26.953401845776
      2412    1       10.045436129990       8.050831917636      26.953401989684
      2413    1       12.042152456590       8.053694053865      23.955402022588
      2414    1       14.060550962198      10.079750257886      23.932677343933
      2415    1       12.060516337230      10.068666331242      26.933270184138
      2416    1       14.048269187659       8.070705542532      26.938353295262
      2417    1       16.043488211650       8.075981410232      23.941829842061
      2418    1       18.058595279512      10.111470576589      23.911377739445
      2419    1       16.061135481532      10.094330394467      26.911628554349
      2420    1       18.041665452490       8.087122688484      26.926820220837
      2421    1       20.033649990605       8.091180934018      23.934053084069
      2422    1       22.038293452139      10.122783771301      23.906713012776
      2423    1       20.046975718067      10.109344310555      26.900770823868
      2424    1       22.025943033970       8.089532412174      26.927456421662
      2425    1       24.016032652543       8.085820836994      23.940691234301
      2426    1       26.013599961595      10.098555509593      23.929636838381
      2427    1       24.024283240867      10.100517085578      26.913217396855
      2428    1       26.009751812628       8.073592499318      26.943356749575
      2429    1       28.002842943543       8.060896265230      23.960093077392
      2430    1       30.002763312920      10.056539808490      23.963974099725
      2431    1       28.008004995347      10.070970223946      26.944342143233
      2432    1       30.001802619086       8.047812008661      26.966344199494
      2433    1       31.999919612336       8.033014093233      23.980279682509
      2434    1       34.004225451081      10.024079020626      23.988415916851
      2435    1       32.004485097259      10.038392823139      26.975389444720
      2436    1       34.001996420424       8.024940185082      26.985464299724
      2437    1       36.002368493667       8.014300894067      23.993427922383
      2438    1       38.007588298258      10.007882458609      23.999839297252
      2439    1       36.007572778152      10.016190231249      26.994577196984
      2440    1       38.004950566661       8.010655741234      26.996719853721
      2441    1       40.004833655310       8.005015260303      23.999902360157
      2442    1       42.008801973123      10.001674557796      24.003860820766
      2443    1       40.010373762108      10.005182448861      27.002984052753
      2444    1       42.007075575002       8.003585997137      27.001898096610
      2445    1       44.005825380840       8.001195372554      24.002530857803
      2446    1       46.008327170280       9.999712106570      24.004809025702
      2447    1       44.011022958982      10.000804309279      27.005607180652
      2448    1       46.007712176011       8.000617678073      27.003775694869
      2449    1        0.025369349428      12.014092201626      23.980375162478
      2450    1        2.034215017316      14.017724275597      23.974601275062
      2451    1        0.035418508269      14.017193796480      26.974542260761
      2452    1        2.038308041325      12.023019259273      26.970896074729
      2453    1        4.036942549486      12.023959095968      23.971116654010
      2454    1        6.052341412884      14.032109005398      23.959977291925
      2455    1        4.050462097329      14.028527028383      26.961127117481
      2456    1        6.052523047772      12.037441586050      26.956216511820
      2457    1        8.053694895843      12.042153139604      23.955401234618
      2458    1       10.079754232841      14.060552698754      23.932673566980
      2459    1        8.070706009673      14.048268952503      26.938352969969
      2460    1       10.068666359822      12.060516918730      26.933269668090
      2461    1       12.074182711461      12.074186049028      23.929130392808
      2462    1       14.111815344233      14.111829421194      23.883919140404
      2463    1       12.091941156296      14.079680006463      26.902320119211
      2464    1       14.079678840105      12.091940996139      26.902321678333
      2465    1       16.087885664422      12.120464562881      23.891838789769
      2466    1       18.123135719105      14.175553541855      23.821695165644
      2467    1       16.100206236473      14.117757213925      26.858859902961
      2468    1       18.073810877995      12.120689831231      26.875049051791
      2469    1       20.075949592118      12.158507711218      23.862531810621
      2470    1       22.091574274305      14.199631267057      23.804657259210
      2471    1       20.081965203973      14.140538549715      26.837286180280
      2472    1       22.049021782602      12.126132407661      26.874907054061
      2473    1       24.040839264069      12.150360795310      23.876909782161
      2474    1       26.046546099654      14.155407859763      23.868536315013
      2475    1       24.048948968123      14.127595879397      26.866188592902
      2476    1       26.022512906107      12.100052961067      26.910122064488
      2477    1       28.013759996809      12.097445643672      23.930301292785
      2478    1       30.024299009297      14.078274459161      23.954081854023
      2479    1       28.025931904821      14.085368945731      26.929181633485
      2480    1       30.010960315865      12.058731393196      26.957546882658
      2481    1       32.009214748989      12.042877447837      23.977662519029
      2482    1       34.023755942053      14.024622202092      23.999421521983
      2483    1       32.021727081738      14.040229599143      26.983454316947
      2484    1       34.012406362874      12.025362382274      26.990618831631
      2485    1       36.012833191524      12.013331272608      23.999710966848
      2486    1       38.023573599181      14.004543318441      24.011096263749
      2487    1       36.024713457542      14.012915653251      27.008541074555
      2488    1       38.015761666656      12.007917670820      27.004935066643
      2489    1       40.013993474598      12.002570654067      24.006286589676
      2490    1       42.019802997388      13.999507917679      24.011431749670
      2491    1       40.024546513609      14.002188204598      27.014157968249
      2492    1       42.016224280934      12.001205978578      27.008704072592
      2493    1       44.012565685982      11.999562995821      24.007205107280
      2494    1       46.015344761156      13.998754152905      24.009544469066
      2495    1       44.021196163526      13.999191993003      27.012971383386
      2496    1       46.014539209997      11.999217193573      27.008558253959
      2497    1        0.029989778271      16.012275650503      23.978457743001
      2498    1        2.039613793033      18.014318138120      23.972513794337
      2499    1        0.039151779676      18.013429644293      26.973046611735
      2500    1        2.045561009516      16.020221190856      26.967063164338
      2501    1        4.047014250806      16.022318454148      23.966122407821
      2502    1        6.065489081848      18.027826760052      23.953351643642
      2503    1        4.058479002698      18.023200067398      26.956843005759
      2504    1        6.066693883205      16.034972470707      26.946945578675
      2505    1        8.075981635608      16.043485303814      23.941830825980
      2506    1       10.111464137627      18.058585820031      23.911388573347
      2507    1        8.087121907065      18.041665236080      26.926821438227
      2508    1       10.094331185106      16.061134312554      26.911628447064
      2509    1       12.120480609063      16.087884534022      23.891823626263
      2510    1       14.175586553065      18.123099444360      23.821680280432
      2511    1       12.120690049516      18.073808788939      26.875051495216
      2512    1       14.117757697409      16.100207028360      26.858857314648
      2513    1       16.162175267934      16.162210983315      23.804704127270
      2514    1       18.201622562886      18.201606904182      23.717108790655
      2515    1       16.136549560837      18.114645391592      26.813780295273
      2516    1       18.114646423695      16.136548230399      26.813779148865
      2517    1       20.153757610139      16.219423385193      23.741114999196
      2518    1       22.176328235286      18.225326334560      23.746440652010
      2519    1       20.117398012120      18.138623088701      26.801003598313
      2520    1       22.084150877000      16.142430399429      26.824969758700
      2521    1       24.109742320184      16.205789734978      23.793250414256
      2522    1       26.139940876432      18.189460177871      23.871392313668
      2523    1       24.087138443136      18.128465941718      26.864203729093
      2524    1       26.053006324584      16.111789648491      26.893978471611
      2525    1       28.066115593547      16.133176555848      23.911718537187
      2526    1       30.098009284880      18.099644516770      23.997583452322
      2527    1       28.066233705574      18.088351264428      26.958441049819
      2528    1       30.039115415244      16.062098033207      26.972037980070
      2529    1       32.048013010216      16.049425226917      23.998743712372
      2530    1       34.077011438550      18.025099842028      24.044243450095
      2531    1       32.060929070104      18.039992997476      27.025481097345
      2532    1       34.039295583693      16.022440874495      27.015071383217
      2533    1       36.042044519450      16.009719258557      24.021446463179
      2534    1       38.056093141354      18.002899859430      24.035613794285
      2535    1       36.057940774725      18.011286198087      27.041480163015
      2536    1       38.037822007802      16.004739236816      27.024007732527
      2537    1       40.032677789047      16.000026035214      24.019430489184
      2538    1       42.037425996214      17.999410925071      24.023465327547
      2539    1       40.047486583435      18.001831326751      27.033378912421
      2540    1       42.031557102391      15.999708857125      27.020454203975
      2541    1       44.023569464417      15.998684206687      24.014575324783
      2542    1       46.024843433488      17.999305294273      24.015792353139
      2543    1       44.035331202829      17.999798629252      27.023359463447
      2544    1       46.024379583945      15.998879840802      27.015431242555
      2545    1        0.031893103865      20.008556295993      23.978280542371
      2546    1        2.040001828550      22.008520033838      23.973481108419
      2547    1        0.038690538383      22.008049001191      26.974203073335
      2548    1        2.048495727611      20.014205778315      26.966246865250
      2549    1        4.052425982943      20.016114466053      23.964379277543
      2550    1        6.068476095718      22.016968962104      23.953578881915
      2551    1        4.058772904101      22.014008372508      26.958093338723
      2552    1        6.073841878398      20.025437402136      26.943388701549
      2553    1        8.091177442237      20.033654757470      23.934055052414
      2554    1       10.122795145840      22.038309621267      23.906694456776
      2555    1        8.089533337963      22.025943833210      26.927454566831
      2556    1       10.109343130861      20.046977695832      26.900771913262
      2557    1       12.158477737405      20.075958931443      23.862572930530
      2558    1       14.199632537119      22.091643779337      23.804567109983
      2559    1       12.126133045034      22.049023894867      26.874901193481
      2560    1       14.140537169118      20.081967728050      26.837289534603
      2561    1       16.219421575057      20.153759420737      23.741203839474
      2562    1       18.225273406748      22.176374215155      23.746380994198
      2563    1       16.142427967067      22.084152228373      26.824963863396
      2564    1       18.138624612366      20.117399117203      26.801007196497
      2565    1       20.215954085633      20.215916708973      23.734179100865
      2566    1       22.234967669088      22.234966964521      23.856369237644
      2567    1       20.130197503248      22.115762283238      26.848946877776
      2568    1       22.115761797528      20.130197589656      26.848946757978
      2569    1       24.206110131056      20.226766344575      23.857593676457
      2570    1       26.226260697220      22.226690216665      23.996633103472
      2571    1       24.117861002148      22.122910992274      26.943098996781
      2572    1       26.096498607307      20.111400731684      26.947940477049
      2573    1       28.169208966366      20.170290001624      23.996800823501
      2574    1       30.188627038291      22.141634187143      24.123232143955
      2575    1       28.110637508713      22.097090606984      27.047402388776
      2576    1       30.087220598724      20.067090358156      27.037866400409
      2577    1       32.131693315168      20.067457572905      24.085140264829
      2578    1       34.154848398234      22.047142449067      24.130530192722
      2579    1       32.110744601747      22.053425692188      27.103651670279
      2580    1       34.084376120932      20.026330635513      27.069262104956
      2581    1       36.096928447269      20.014015194710      24.069134785558
      2582    1       38.098874410171      22.013482084998      24.070680686289
      2583    1       36.099659758742      22.022508850532      27.089529386423
      2584    1       38.070596883385      20.008008926583      27.055330887027
      2585    1       40.060896423423      20.002755756962      24.039898698871
      2586    1       42.057363360930      22.005223193948      24.037474217689
      2587    1       40.073675862602      22.009620819168      27.056803841191
      2588    1       42.051411036586      20.002634145906      27.036252038972
      2589    1       44.037557428527      20.000843996391      24.023919122317
      2590    1       46.034496597005      22.002656863940      24.022258105189
      2591    1       44.050006124823      22.004835397514      27.034533781654
      2592    1       46.035777441051      20.001192448676      27.023514420007
      2593    1        0.029723870080      24.004066962111      23.980403357900
      2594    1        2.034300202772      26.002735864122      23.977851415632
      2595    1        0.033601982582      26.002896429718      26.978130969853
      2596    1        2.044926291884      24.006908189156      26.969652014376
      2597    1        4.048968847963      24.007512495066      23.967985901809
      2598    1        6.057049342496      26.005348989822      23.962738181981
      2599    1        4.049835798108      26.004944260342      26.965622107214
      2600    1        6.068228105863      24.012421425915      26.949557246214
      2601    1        8.085826590838      24.016027637328      23.940685475361
      2602    1       10.098539739279      26.013586798210      23.929656210358
      2603    1        8.073591531093      26.009750573361      26.943358307790
      2604    1       10.100517906081      24.024280151102      26.913215517472
      2605    1       12.150382864214      24.040792220622      23.876869301469
      2606    1       14.155374139454      26.046571568351      23.868716644564
      2607    1       12.100051368611      26.022512319801      26.910130664104
      2608    1       14.127596223318      24.048941490272      26.866189215004
      2609    1       16.205803631190      24.109599059893      23.793284780806
      2610    1       18.189474707211      26.140047211847      23.871360764744
      2611    1       16.111792579443      26.053012476116      26.893983154424
      2612    1       18.128466822733      24.087136286236      26.864204846804
      2613    1       20.226771522015      24.206101946994      23.857597443455
      2614    1       22.226690679763      26.226259990542      23.996633492615
      2615    1       20.111400305024      26.096498774772      26.947940097827
      2616    1       22.122910993371      24.117861000420      26.943098997123
      2617    1       24.246561723500      24.246561723500      23.996646021132
      2618    1       26.235910701338      26.235910202155      24.136923298301
      2619    1       24.118049688971      26.122637025444      27.051786547954
      2620    1       26.122637026589      24.118049688157      27.051786547595
      2621    1       28.226993964734      24.207482013236      24.135912218950
      2622    1       30.225153143154      26.177639349484      24.250087148121
      2623    1       28.129773487636      26.115760747754      27.147331256353
      2624    1       30.127631862398      24.087433692442      27.132594177450
      2625    1       32.205245151680      24.110782538909      24.204924840198
      2626    1       34.200866689946      26.092345268174      24.197674316974
      2627    1       32.142025013482      26.084202262521      27.174428988853
      2628    1       34.127188481524      24.048980838040      27.133416721265
      2629    1       36.151280112014      24.040906706540      24.124295726936
      2630    1       38.124342193515      26.038473091902      24.094785539593
      2631    1       36.126620592125      26.049035901855      27.126086449791
      2632    1       38.100806637109      24.024165821590      27.087282744730
      2633    1       40.086609934399      24.015931191771      24.059940248685
      2634    1       42.069308031625      26.016970479409      24.047005497151
      2635    1       40.090220905131      26.025910491322      27.073321750727
      2636    1       42.068610779679      24.012310075912      27.050824665044
      2637    1       44.049397364167      24.007434150093      24.032283869797
      2638    1       46.040420872899      26.008496980967      24.026770412890
      2639    1       44.059265689770      26.013965812335      27.042321070495
      2640    1       46.045205754277      24.006831285604      27.030562927602
      2641    1        0.023972947818      28.000532676125      23.984428491964
      2642    1        2.024846872633      29.999355121921      23.984189473896
      2643    1        0.025547653496      29.999665643362      26.983738005964
      2644    1        2.035727701221      28.001271890628      26.976529325680
      2645    1        4.037468997018      28.000932345277      23.976124009980
      2646    1        6.037530584991      29.999448948499      23.976441977228
      2647    1        4.035424401961      29.999845910114      26.976578176936
      2648    1        6.051453144552      28.002724760120      26.963745191338
      2649    1        8.060890843729      28.002845768982      23.960099006355
      2650    1       10.056549129589      30.002770693075      23.963967060748
      2651    1        8.047812534100      30.001803801519      26.966344020189
      2652    1       10.070969808685      28.008007791347      26.944344829308
      2653    1       12.097448995863      28.013806119993      23.930319092024
      2654    1       14.078291559478      30.024245200285      23.953980773698
      2655    1       12.058733787479      30.010960621129      26.957540004658
      2656    1       14.085371721843      28.025938983907      26.929174633530
      2657    1       16.133186958225      28.066140663263      23.911450963391
      2658    1       18.099651401209      30.097979904699      23.997870063540
      2659    1       16.062091960502      30.039106928856      26.972039373061
      2660    1       18.088347244073      28.066229688633      26.958438645666
      2661    1       20.170320442157      28.169167979440      23.996870624835
      2662    1       22.141534108968      30.188623754236      24.123181821725
      2663    1       20.067094805631      30.087224394433      27.037865080325
      2664    1       22.097090566590      28.110637951017      27.047402051737
      2665    1       24.207487921365      28.226988368176      24.135916304590
      2666    1       26.177601686917      30.225205586625      24.250025213096
      2667    1       24.087435525501      30.127630855269      27.132595473568
      2668    1       26.115760338912      28.129773587683      27.147331330635
      2669    1       28.216649463754      28.216615133828      24.261507670339
      2670    1       30.202693438651      30.202672909083      24.285380070895
      2671    1       28.117319227772      30.138340441347      27.198141072898
      2672    1       30.138341884460      28.117320434737      27.198137643344
      2673    1       32.220502536852      28.154890495541      24.261395254634
      2674    1       34.178301281955      30.124819209885      24.182414606505
      2675    1       32.137060117782      30.115042058732      27.187911129941
      2676    1       34.141098693010      28.082186240648      27.164158109761
      2677    1       36.160833316952      28.076779852367      24.140228228440
      2678    1       38.113502036647      30.059393110202      24.090500783115
      2679    1       36.121894379010      30.074340345304      27.126872993270
      2680    1       38.110352786566      28.047160677431      27.100563927787
      2681    1       40.092594011083      28.033920223092      24.067073891358
      2682    1       42.066549708468      30.028107401616      24.047406053009
      2683    1       40.088183601238      30.041968668304      27.074308534047
      2684    1       42.074615240766      28.025509265124      27.057335122401
      2685    1       44.053127039216      28.016184008315      24.036076318694
      2686    1       46.040151819449      30.014414101746      24.027821659786
      2687    1       44.059168317037      30.023331612165      27.043727545404
      2688    1       46.048976268576      28.014222745415      27.034116676303
      2689    1        0.016807007285      31.998938505681      23.989150061900
      2690    1        2.015445120243      33.998743355147      23.990370849397
      2691    1        0.017154638973      33.998741988116      26.989420680472
      2692    1        2.024480667264      31.998896959287      26.984494782554
      2693    1        4.023686847107      31.998688741344      23.985325366642
      2694    1        6.020038326486      33.999421627383      23.988369500302
      2695    1        4.021394410197      33.999142514268      26.986868874798
      2696    1        6.031818123735      31.999663835898      26.979330683561
      2697    1        8.033017035507      31.999919506326      23.980277242864
      2698    1       10.024077966211      34.004221792685      23.988414759801
      2699    1        8.024940367950      34.001995871446      26.985463711603
      2700    1       10.038393726652      32.004484024782      26.975387003051
      2701    1       12.042877922293      32.009196454661      23.977648911644
      2702    1       14.024606807652      34.023769551393      23.999450110997
      2703    1       12.025360401815      34.012405285999      26.990620566621
      2704    1       14.040225229328      32.021722757000      26.983457636864
      2705    1       16.049384853008      32.048044291313      23.998885183115
      2706    1       18.025160245318      34.077001991019      24.044148129261
      2707    1       16.022444815154      34.039299992894      27.015075604225
      2708    1       18.040001322269      32.060935016775      27.025484288051
      2709    1       20.067456411750      32.131696347113      24.084868068784
      2710    1       22.047100919002      34.154876931276      24.130710057053
      2711    1       20.026324132352      34.084373502606      27.069253876406
      2712    1       22.053419086095      32.110741815419      27.103655160572
      2713    1       24.110922266326      32.205227728301      24.204984894065
      2714    1       26.092280379587      34.200862695178      24.197571323912
      2715    1       24.048988332646      34.127188115619      27.133418405901
      2716    1       26.084201409164      32.142027424819      27.174423011548
      2717    1       28.154879847092      32.220507075898      24.261484791868
      2718    1       30.124858033078      34.178268350968      24.182402351158
      2719    1       28.082183399977      34.141100141018      27.164161153917
      2720    1       30.115043101820      32.137058729637      27.187912579063
      2721    1       32.164622121633      32.164658214132      24.199922264595
      2722    1       34.114010839124      34.114025826540      24.119026456333
      2723    1       32.101112927058      34.118922742786      27.143447218263
      2724    1       34.118923249750      32.101113639781      27.143449781218
      2725    1       36.122862827421      32.089440084587      24.110806033056
      2726    1       38.081335075279      34.061643123045      24.068782271865
      2727    1       36.093169693920      34.080674951394      27.099492803507
      2728    1       38.095578303832      32.061775524300      27.089915334325
      2729    1       40.077388105440      32.044125438430      24.059296763873
      2730    1       42.053259270431      34.032574466193      24.040701455418
      2731    1       40.071719153296      34.048848340449      27.062705462508
      2732    1       42.067583979191      32.035297076583      27.053874205855
      2733    1       44.047756444471      32.022563834044      24.034376893352
      2734    1       46.034726765444      34.017922062586      24.025733939057
      2735    1       44.051142431701      34.028817545220      27.039439925696
      2736    1       46.046116295625      32.020369231444      27.033359132955
      2737    1        0.010415915758      35.998991767225      23.993386171577
      2738    1        2.008437774583      37.999660917764      23.995094023272
      2739    1        0.010328084870      37.999343895401      26.994044919640
      2740    1        2.014686272657      35.999170954372      26.991324412964
      2741    1        4.012726388743      35.999495883508      23.992657884209
      2742    1        6.008994619143      38.001542450824      23.995960269237
      2743    1        4.011207125178      38.000700115603      26.994230859285
      2744    1        6.016492606157      36.001064040375      26.991052684507
      2745    1        8.014300455850      36.002367828730      23.993427894993
      2746    1       10.007881655653      38.007589047539      23.999840165413
      2747    1        8.010655515826      38.004950556570      26.996720034050
      2748    1       10.016189531320      36.007572608054      26.994577793461
      2749    1       12.013327666808      36.012836497157      23.999715780586
      2750    1       14.004546873080      38.023575041994      24.011095438466
      2751    1       12.007917780492      38.015762373321      27.004935719774
      2752    1       14.012916542471      36.024715464834      27.008543061949
      2753    1       16.009737867039      36.042046097211      24.021434660048
      2754    1       18.002893224336      38.056082851191      24.035605420099
      2755    1       16.004740458788      38.037821219046      27.024005319873
      2756    1       18.011286392605      36.057938560326      27.041473033757
      2757    1       20.013967436418      36.096920414412      24.069146306747
      2758    1       22.013494159936      38.098891824738      24.070702554623
      2759    1       20.008005914604      38.070597094647      27.055333314923
      2760    1       22.022508792727      36.099661236051      27.089538237939
      2761    1       24.040959230676      36.151261085339      24.124260280703
      2762    1       26.038457079396      38.124329222008      24.094764700891
      2763    1       24.024169147275      38.100805952355      27.087281158177
      2764    1       26.049034129990      36.126619878492      27.126080229561
      2765    1       28.076767219221      36.160864091442      24.140269840997
      2766    1       30.059402844948      38.113509235903      24.090512670495
      2767    1       28.047158540001      38.110353931879      27.100564870474
      2768    1       30.074342387061      36.121894228031      27.126875628584
      2769    1       32.089441823084      36.122845844312      24.110790048179
      2770    1       34.061641340700      38.081330800468      24.068778205999
      2771    1       32.061776761234      38.095577509087      27.089915276404
      2772    1       34.080673763477      36.093169523349      27.099491174802
      2773    1       36.075645402538      36.075648989190      24.072459611337
      2774    1       38.050983010478      38.050983815211      24.047190189986
      2775    1       36.061348870848      38.069662962628      27.067938005231
      2776    1       38.069662994477      36.061349477719      27.067938552532
      2777    1       40.054687552439      36.042870213890      24.045423870908
      2778    1       42.037920564961      38.030550950976      24.031853440683
      2779    1       40.051565766530      38.046063818970      27.047374310203
      2780    1       42.053273590857      36.037904997388      27.044480910339
      2781    1       44.037542488284      36.024289743650      24.029309802668
      2782    1       46.027184153327      38.018404967380      24.022000589932
      2783    1       44.039834425006      38.029377302117      27.032466471891
      2784    1       46.038810274381      36.023259223655      27.029494703889
      2785    1        0.005811930890      39.999802348017      23.996566479743
      2786    1        2.004108920101      42.000842492216      23.998169866673
      2787    1        0.005640317027      42.000456457046      26.997275892401
      2788    1        2.007840619309      40.000540836651      26.996112570370
      2789    1        4.005950682750      40.001106498808      23.997350248774
      2790    1        6.003381751202      42.003264734236      23.999936466319
      2791    1        4.005122506299      42.002484181507      26.998607711440
      2792    1        6.007264075919      40.003428063352      26.997913016456
      2793    1        8.005015068647      40.004833836125      23.999902539068
      2794    1       10.001674670855      42.008802126899      24.003860856919
      2795    1        8.003585985619      42.007075647076      27.001898153311
      2796    1       10.005182441819      40.010373988587      27.002984245325
      2797    1       12.002571278765      40.013993982087      24.006286619837
      2798    1       13.999508306397      42.019802363105      24.011431193067
      2799    1       12.001206170963      42.016224284377      27.008703963235
      2800    1       14.002188779698      40.024546376149      27.014157408209
      2801    1       16.000026380351      40.032674778137      24.019427899690
      2802    1       17.999409434219      42.037426205199      24.023465845205
      2803    1       15.999708670804      42.031556711766      27.020453848760
      2804    1       18.001830158316      40.047485966255      27.033378599142
      2805    1       20.002752384036      40.060901746916      24.039904705848
      2806    1       22.005225351772      42.057364781647      24.037475309015
      2807    1       20.002633900436      42.051411622002      27.036252898780
      2808    1       22.009621990590      40.073676919918      27.056805579288
      2809    1       24.015936918113      40.086604339334      24.059934587768
      2810    1       26.016968998221      42.069305576957      24.047003233731
      2811    1       24.012310758612      42.068610360125      27.050824097898
      2812    1       26.025909762257      40.090219912064      27.073319770624
      2813    1       28.033914946289      40.092597428648      24.067075697248
      2814    1       30.028107433581      42.066551561729      24.047407441680
      2815    1       28.025508568268      42.074615353135      27.057335035578
      2816    1       30.041968842777      40.088184422737      27.074309803096
      2817    1       32.044128562730      40.077387955553      24.059297896692
      2818    1       34.032575068537      42.053258834078      24.040701401876
      2819    1       32.035297434371      42.067584159730      27.053874577038
      2820    1       34.048848599474      40.071718668226      27.062705129964
      2821    1       36.042869493071      40.054686644937      24.045423021386
      2822    1       38.030550729066      42.037920370993      24.031853257789
      2823    1       36.037905004997      42.053273396601      27.044480753466
      2824    1       38.046063591456      40.051565768986      27.047374157014
      2825    1       40.035454746934      40.035454939582      24.032780158824
      2826    1       42.025465388556      42.025465439372      24.023999219761
      2827    1       40.034763921666      42.038461128068      27.034128464803
      2828    1       42.038461122877      40.034763999714      27.034128506585
      2829    1       44.027149731835      40.022365280983      24.023472875264
      2830    1       46.020014350688      42.016791689168      24.017994538441
      2831    1       44.029110439613      42.026569412424      27.025423701382
      2832    1       46.030194447230      40.022935632252      27.024424926517
      2833    1        0.002940899353      44.000666157698      23.998682701078
      2834    1        2.001748803736      46.001694365110      23.999968664544
      2835    1        0.002781167679      46.001441033411      26.999302069090
      2836    1        2.003724205683      44.001865477741      26.999031690411
      2837    1        4.002387547585      44.002309056633      23.999956318087
      2838    1        6.000904113438      46.004024580278      24.001747267725
      2839    1        4.001943531280      46.003633679135      27.000880307586
      2840    1        6.002593974385      44.004993481302      27.001265991542
      2841    1        8.001195394018      44.005825427530      24.002530872001
      2842    1        9.999712150066      46.008327150045      24.004809002049
      2843    1        8.000617695364      46.007712184697      27.003775692518
      2844    1       10.000804367419      44.011022973756      27.005607161942
      2845    1       11.999563136016      44.012565567007      24.007204993947
      2846    1       13.998754118752      46.015344649470      24.009544412429
      2847    1       11.999217218099      46.014539164047      27.008558208570
      2848    1       13.999192008260      44.021196015664      27.012971241409
      2849    1       15.998683906179      44.023569226848      24.014575239789
      2850    1       17.999305143796      46.024843623769      24.015792498042
      2851    1       15.998879752328      46.024379558592      27.015431246543
      2852    1       17.999798384576      44.035331296588      27.023359636572
      2853    1       20.000844009861      44.037558288385      24.023919753272
      2854    1       22.002657161683      46.034496683953      24.022258153625
      2855    1       20.001192475318      46.035777588607      27.023514561994
      2856    1       22.004835729306      44.050006291993      27.034533950739
      2857    1       24.007434748198      44.049396571730      24.032283289990
      2858    1       26.008496849532      46.040420507194      24.026770159732
      2859    1       24.006831406494      46.045205638733      27.030562814501
      2860    1       26.013965684028      44.059265369515      27.042320682769
      2861    1       28.016183219173      44.053127060726      24.036076202571
      2862    1       30.014413965839      46.040152029626      24.027821762576
      2863    1       28.014222599062      46.048976235247      27.034116614514
      2864    1       30.023331490001      44.059168544188      27.043727736131
      2865    1       32.022564156681      44.047756863200      24.034377239601
      2866    1       34.017922191916      46.034726823004      24.025734003803
      2867    1       32.020369259091      46.046116392836      27.033359224437
      2868    1       34.028817696344      44.051142423181      27.039439986146
      2869    1       36.024289833978      44.037542310699      24.029309739039
      2870    1       38.018404974766      46.027184094052      24.022000564655
      2871    1       36.023259269551      46.038810249330      27.029494704623
      2872    1       38.029377282511      44.039834357872      27.032466415589
      2873    1       40.022365214150      44.027149687717      24.023472832163
      2874    1       42.016791668174      46.020014339877      24.017994527184
      2875    1       40.022935619827      46.030194424941      27.024424907564
      2876    1       42.026569385743      44.029110442738      27.025423689566
      2877    1       44.018833459189      44.018833473990      24.018313938125
      2878    1       46.014288618306      46.014288623033      24.014440178719
      2879    1       44.020615654981      46.022404648973      27.019527612873
      2880    1       46.022404647437      44.020615664396      27.019527616421
      2881    1        0.017546575133       0.017546576148      29.984063511925
      2882    1        2.021665247462       2.021665249827      29.980019145843
      2883    1        0.021328815571       2.019788848336      32.980190998256
      2884    1        2.019788847244       0.021328815903      32.980190998772
      2885    1        4.019627250802       0.022978812983      29.980311688294
      2886    1        6.024199547072       2.028743654884      29.974898096330
      2887    1        4.023769638312       2.025784902737      32.975235768155
      2888    1        6.021051327353       0.026890567058      32.975982732054
      2889    1        8.020702728364       0.029254466557      29.976170929067
      2890    1       10.025124958463       2.036757442566      29.969342389744
      2891    1        8.024960022619       2.032619103137      32.969761881948
      2892    1       10.020824965441       0.032628394145      32.971813758880
      2893    1       12.019961578564       0.035518196453      29.972266914329
      2894    1       14.023296390185       2.044214608380      29.964483627186
      2895    1       12.023957613367       2.039299383027      32.964642965707
      2896    1       14.018544490365       0.037407028006      32.968588801812
      2897    1       16.016853819646       0.040205191473      29.969671896675
      2898    1       18.018248035334       2.048664465062      29.962102734502
      2899    1       16.020182373796       2.044100120805      32.961345669291
      2900    1       18.014223652057       0.039741271640      32.967454347180
      2901    1       20.011706460911       0.041475887712      29.969592875264
      2902    1       22.011097602844       2.047773217932      29.963822901981
      2903    1       20.014114906986       2.045089576340      32.961464571866
      2904    1       22.008787895376       0.038461395498      32.969265547335
      2905    1       24.005963868126       0.038293651924      29.972637284963
      2906    1       26.004359975212       2.041117130300      29.969789011996
      2907    1       24.007494663284       2.041280858341      32.965723332081
      2908    1       26.003798481505       0.033525095302      32.973949642889
      2909    1       28.001473074746       0.031357704815      29.978202387912
      2910    1       30.000261493774       2.030881084340      29.978208004754
      2911    1       28.002434055281       2.033535283155      32.973216837310
      2912    1       30.000572476698       0.026227571511      32.980372687831
      2913    1       31.999277102437       0.022809100281      29.984727025417
      2914    1       33.999227085449       2.020382519838      29.986539306272
      2915    1       32.000061533258       2.024178013655      32.981817571360
      2916    1       33.999452404115       0.018487205913      32.986953963947
      2917    1       35.999135980617       0.014876981369      29.990653929095
      2918    1       38.000137625288       2.011971449063      29.993076014119
      2919    1       36.000033686675       2.015578186346      32.989469203576
      2920    1       37.999869431379       0.011833556014      32.992486696452
      2921    1       40.000096666987       0.008797119208      29.995156771268
      2922    1       42.001616864808       2.006300293364      29.997416124651
      2923    1       40.001214381814       2.009035943638      32.995128023520
      2924    1       42.000955313889       0.006918830269      32.996499068074
      2925    1       44.001279098751       0.004732703288      29.998158220101
      2926    1       46.002839290341       2.002921752672      29.999956156592
      2927    1       44.002579264199       2.004704244850      32.998757780026
      2928    1       46.002052390025       0.003675945573      32.999092984355
      2929    1        0.022978813980       4.019627253941      29.980311685927
      2930    1        2.028743657747       6.024199553958      29.974898090020
      2931    1        0.026890568572       6.021051328484      32.975982729845
      2932    1        2.025784902120       4.023769640493      32.975235766952
      2933    1        4.026997472681       4.026997478299      29.974450713128
      2934    1        6.033892326800       6.033892340176      29.966654883569
      2935    1        4.031234996783       6.028577662509      32.968651986895
      2936    1        6.028577658333       4.031234997889      32.968651989641
      2937    1        8.029995248051       4.036241559543      29.967359012200
      2938    1       10.037210140680       6.045884986065      29.956760949632
      2939    1        8.034234074098       6.037750765160      32.959926345180
      2940    1       10.029411644800       4.039485203676      32.961595633067
      2941    1       12.030378628525       4.046330956483      29.959924591775
      2942    1       14.036263897116       6.058148004530      29.947049750553
      2943    1       12.034176812436       6.047367992622      32.951077368607
      2944    1       14.027059619941       4.046881208581      32.955608572091
      2945    1       16.026637227960       4.054683114764      29.954228456233
      2946    1       18.029383853445       6.066362961119      29.941316273688
      2947    1       16.029653811570       6.054821890094      32.944781262492
      2948    1       18.021167329692       4.050923057216      32.952990880273
      2949    1       20.018826168027       4.057665809063      29.953121316837
      2950    1       22.018112503206       6.065748126936      29.943676904595
      2951    1       20.021071965407       6.056807503290      32.944371472941
      2952    1       22.013148186691       4.049415935809      32.955683602729
      2953    1       24.009565326299       4.052897463032      29.958341910529
      2954    1       26.007368555568       6.055146324313      29.954810068612
      2955    1       24.011369615704       6.051466566183      32.951543482011
      2956    1       26.005805261407       4.042157641269      32.963658778166
      2957    1       28.002592101716       4.041631691736      29.968593168240
      2958    1       30.001533260553       6.038850025321      29.970397807924
      2959    1       28.004308616545       6.040238734923      32.964410538343
      2960    1       30.001476265268       4.031443827545      32.974512476651
      2961    1       31.999812570415       4.028152537125      29.980187207531
      2962    1       34.000921600867       6.023164947772      29.984631311439
      2963    1       32.001650823149       6.027108436292      32.978522811701
      2964    1       34.000515863897       4.020586183772      32.985023102089
      2965    1       36.000330555315       4.016554497966      29.989818471264
      2966    1       38.002891631817       6.011833231566      29.994433820568
      2967    1       36.002367738041       6.015829226437      32.990019438404
      2968    1       38.001636890816       4.011921805575      32.993084854568
      2969    1       40.002113753817       4.008552380057      29.996265673993
      2970    1       42.004977820082       6.005132631401      29.999910476834
      2971    1       40.004314035363       6.008022239103      32.997516081606
      2972    1       42.003301386968       4.006103615279      32.998261638889
      2973    1       44.003717704053       4.003829881993      29.999938299852
      2974    1       46.006178385921       6.001705661553      30.002466931911
      2975    1       44.005966110115       6.003418104999      33.001580500353
      2976    1       46.004600515382       4.002668564848      33.001129265681
      2977    1        0.029254473123       8.020702728298      29.976170924012
      2978    1        2.036757456790      10.025124953712      29.969342379749
      2979    1        0.032628396667      10.020824962640      32.971813757964
      2980    1        2.032619106277       8.024960023914      32.969761877475
      2981    1        4.036241567544       8.029995262396      29.967358995363
      2982    1        6.045885007134      10.037210166603      29.956760906519
      2983    1        4.039485209624      10.029411644894      32.961595625065
      2984    1        6.037750763341       8.034234081385      32.959926339269
      2985    1        8.042694736417       8.042694767238      29.955624168137
      2986    1       10.053545728748      10.053545792820      29.940069266605
      2987    1        8.045198732349      10.040561242720      32.948559732458
      2988    1       10.040561232239       8.045198734824      32.948559743591
      2989    1       12.045816418415       8.057893971381      29.941933594723
      2990    1       14.055190813173      10.071788921865      29.921894966972
      2991    1       12.046994116483      10.053014477330      32.934394874438
      2992    1       14.038714601110       8.055709843916      32.938140393910
      2993    1       16.042119515264       8.071713489649      29.930112227994
      2994    1       18.046619185469      10.085072086675      29.909930646562
      2995    1       16.042089228442      10.063234039677      32.923708967276
      2996    1       18.031056883062       8.061917031405      32.933067006876
      2997    1       20.030651758652       8.077517006578      29.926691000292
      2998    1       22.029738546559      10.084850247718      29.913784200695
      2999    1       20.030628306072      10.066247581006      32.922914739113
      3000    1       22.019664791615       8.060136816027      32.937419250748
      3001    1       24.016031344289       8.070446649775      29.936234748383
      3002    1       26.013618437467      10.068957677438      29.935067912102
      3003    1       24.017351329140      10.059171967071      32.935304929762
      3004    1       26.009358931429       8.049958203243      32.951173729170
      3005    1       28.005562221859       8.052759361896      29.955705908218
      3006    1       30.006040835489      10.045008213286      29.963490151420
      3007    1       28.008373830729      10.044267252813      32.956844179674
      3008    1       30.004005067555       8.035171989838      32.969276195491
      3009    1       32.002461333685       8.032507601722      29.976354440025
      3010    1       34.006509518791      10.023597540317      29.986601710624
      3011    1       32.006014696397      10.027543972728      32.978816357832
      3012    1       34.003675516088       8.021004114866      32.985448428450
      3013    1       36.004194391469       8.016639137087      29.991457716591
      3014    1       38.009608685644      10.009910937142      29.999792930578
      3015    1       36.007883265300      10.014225310228      32.994685250513
      3016    1       38.005765924453       8.010654521486      32.996386773941
      3017    1       40.006829406013       8.007045399659      29.999865897585
      3018    1       42.011597596604      10.003051761495      30.005318465012
      3019    1       40.010411269781      10.005964746207      33.003286232222
      3020    1       42.007839136727       8.004466841478      33.002258708621
      3021    1       44.008383811791       8.002232731634      30.003566566282
      3022    1       46.011815417865      10.000209857834      30.006786663918
      3023    1       44.011735532704      10.001741509974      33.006717779274
      3024    1       46.008895225040       8.001298226666      33.004730733705
      3025    1        0.035518197439      12.019961566197      29.972266919416
      3026    1        2.044214599717      14.023296365301      29.964483649906
      3027    1        0.037407024847      14.018544487023      32.968588808168
      3028    1        2.039299385988      12.023957606783      32.964642966872
      3029    1        4.046330983405      12.030378606138      29.959924577792
      3030    1        6.058148041333      14.036263828504      29.947049755733
      3031    1        4.046881209670      14.027059608716      32.955608580947
      3032    1        6.047368002200      12.034176807679      32.951077357871
      3033    1        8.057894020421      12.045816449534      29.941933497780
      3034    1       10.071789011895      14.055190803512      29.921894812229
      3035    1        8.055709855448      14.038714587371      32.938140389051
      3036    1       10.053014475504      12.046994126164      32.934394858749
      3037    1       12.065908258009      12.065908360874      29.918855845522
      3038    1       14.077787980860      14.077788058089      29.892592368158
      3039    1       12.059938577186      14.052392210280      32.918356391908
      3040    1       14.052392210240      12.059938574207      32.918356401614
      3041    1       16.063607720509      12.085504418533      29.897316264370
      3042    1       18.068275166956      14.094791147995      29.873581992839
      3043    1       16.055129676952      14.064004861373      32.903613468933
      3044    1       18.043161894794      12.067877559195      32.910681970553
      3045    1       20.048118552322      12.094225992060      29.890984850054
      3046    1       22.046261462747      14.094479068194      29.883126822495
      3047    1       20.041337090403      14.067469988866      32.904535261926
      3048    1       22.028378930813      12.065724965205      32.918689701356
      3049    1       24.027265417897      12.084436288047      29.909410164367
      3050    1       26.026102809149      14.074621001860      29.921579233650
      3051    1       24.025637439862      14.059424769205      32.925599906147
      3052    1       26.015531999396      12.053048171750      32.941652845566
      3053    1       28.013379889868      12.059968869216      29.944911357774
      3054    1       30.018254005168      14.045427556935      29.967596805160
      3055    1       28.016313277595      14.042781977964      32.958552647481
      3056    1       30.010025576350      12.035136760590      32.969747729083
      3057    1       32.010743391321      12.033248045327      29.978890542509
      3058    1       34.020206136510      14.020758741593      29.999480869583
      3059    1       32.015416999129      14.024735735898      32.988752931973
      3060    1       34.010982190908      12.018921885414      32.992191232054
      3061    1       36.013833225310      12.014250676130      29.999672891333
      3062    1       38.023138904079      14.006790539592      30.012817035164
      3063    1       36.018517596318      14.011293229911      33.007105129888
      3064    1       38.013906617438      12.008137010403      33.004834779334
      3065    1       40.016308602825      12.004408861657      30.008166533940
      3066    1       42.022878085984      14.001026296288      30.015091763691
      3067    1       40.020683473335      14.003827464030      33.014152592651
      3068    1       42.015583294177      12.002496000433      33.009700972701
      3069    1       44.016342615934      12.000419002725      30.009987914348
      3070    1       46.020228392515      13.999250249767      30.013337259701
      3071    1       44.020379763666      14.000570169047      33.014776538654
      3072    1       46.015416438383      12.000085913868      33.010381132196
      3073    1        0.040205173362      16.016853821917      29.969671915210
      3074    1        2.048664439084      18.018248068018      29.962102755109
      3075    1        0.039741268648      18.014223659876      32.967454348369
      3076    1        2.044100113614      16.020182374372      32.961345681196
      3077    1        4.054683076218      16.026637201460      29.954228524625
      3078    1        6.066362879204      18.029383900650      29.941316391128
      3079    1        4.050923048021      18.021167343843      32.952990890271
      3080    1        6.054821885133      16.029653803085      32.944781286138
      3081    1        8.071713502312      16.042119388916      29.930112338770
      3082    1       10.085072017635      18.046619162047      29.909930934707
      3083    1        8.061917019469      18.031056898283      32.933067033651
      3084    1       10.063234047358      16.042089213654      32.923708985240
      3085    1       12.085504527244      16.063607608441      29.897316203549
      3086    1       14.094791211394      18.068275133464      29.873582258114
      3087    1       12.067877556609      18.043161907463      32.910682003983
      3088    1       14.064004874259      16.055129666868      32.903613482001
      3089    1       16.085381990861      16.085381904816      29.867037674893
      3090    1       18.085182588072      18.085182419482      29.855809428759
      3091    1       16.063325925566      18.053908847887      32.896329964330
      3092    1       18.053908850345      16.063325908998      32.896329938987
      3093    1       20.067324032652      16.095047914748      29.863217920339
      3094    1       22.062973901106      18.086144862007      29.880683617592
      3095    1       20.049182153443      18.057729986306      32.904042204748
      3096    1       22.037612153065      16.061326448865      32.911928954622
      3097    1       24.043835198704      16.084558987991      29.898007244012
      3098    1       26.045511450416      18.069003578597      29.939484534802
      3099    1       24.034713225490      18.051475893901      32.936705588380
      3100    1       26.024904352408      16.048813921709      32.946713296290
      3101    1       28.030140960907      16.058429458340      29.953447574364
      3102    1       30.041263709431      18.041959028026      29.998846649896
      3103    1       28.028481543765      18.037387746207      32.979995980895
      3104    1       30.021372069467      16.031229281366      32.984492212814
      3105    1       32.029386742722      16.030055709314      29.999198714948
      3106    1       34.044665284192      18.018648349660      30.031034552251
      3107    1       32.030702270002      18.021731165298      33.014115386728
      3108    1       34.024252118754      16.015771713214      33.010235696442
      3109    1       36.032634204378      16.011093204821      30.020207010319
      3110    1       38.044515187631      18.006158173559      30.035939170512
      3111    1       36.034644957377      18.010194773529      33.029459267896
      3112    1       38.027137249471      16.006183981126      33.020616052775
      3113    1       40.032125200764      16.002577993184      30.023246968808
      3114    1       42.038624460393      18.001521704012      30.029417547937
      3115    1       40.034855272501      18.004040640632      33.030372219061
      3116    1       42.026849259392      16.001700945992      33.021210047556
      3117    1       44.027962049927      15.999823976081      30.019657980507
      3118    1       46.030804053260      18.000216441634      30.021747335468
      3119    1       44.031285877808      18.001452509730      33.025361178102
      3120    1       46.024039480494      16.000057279410      33.018070544902
      3121    1        0.041475897251      20.011706486115      29.969592857669
      3122    1        2.047773261021      22.011097613515      29.963822837556
      3123    1        0.038461402461      22.008787895383      32.969265534926
      3124    1        2.045089579127      20.014114919741      32.961464560333
      3125    1        4.057665813179      20.018826256278      29.953121275189
      3126    1        6.065748217792      22.018112540706      29.943676686092
      3127    1        4.049415946922      22.013148186071      32.955683571233
      3128    1        6.056807501135      20.021071992205      32.944371453512
      3129    1        8.077516952914      20.030651981831      29.926690960047
      3130    1       10.084850309228      22.029738596001      29.913783696981
      3131    1        8.060136822680      22.019664785619      32.937419193021
      3132    1       10.066247568192      20.030628342576      32.922914718375
      3133    1       12.094225863802      20.048118868512      29.890984881644
      3134    1       14.094478933946      22.046261450089      29.883126291484
      3135    1       12.065724954608      22.028378917319      32.918689642045
      3136    1       14.067469974021      20.041337123209      32.904535260038
      3137    1       16.095047869257      20.067324282750      29.863218104104
      3138    1       18.086144781999      22.062973952761      29.880683548493
      3139    1       16.061326435981      22.037612152271      32.911928935810
      3140    1       18.057729991854      20.049182158541      32.904042213512
      3141    1       20.078392982466      20.078392939440      29.874395947971
      3142    1       22.070969942409      22.070969941864      29.926089526641
      3143    1       20.049724097403      22.043693717813      32.930987754583
      3144    1       22.043693717091      20.049724097532      32.930987754451
      3145    1       24.060632181041      20.073821993815      29.929585548753
      3146    1       26.063996673552      22.064317202074      29.998263746202
      3147    1       24.040933052428      22.043170571640      32.974082631622
      3148    1       26.035565816752      20.041797400990      32.976222118794
      3149    1       28.053976748727      20.054551099005      29.998503289581
      3150    1       30.068235849648      22.045756510496      30.057965356443
      3151    1       28.041403204272      22.035732202357      33.021644593036
      3152    1       30.036885859949      20.028780351508      33.018209195704
      3153    1       32.057593937596      20.030512656262      30.044596021265
      3154    1       34.073946910506      22.026150508919      30.077329732417
      3155    1       32.048252118679      22.024964553673      33.051926791460
      3156    1       34.042229181107      20.016450352664      33.040379312450
      3157    1       36.059367860378      20.013477853692      30.054286532115
      3158    1       38.068696231785      22.013532332233      30.064742792868
      3159    1       36.052633117473      22.015492741793      33.057781328429
      3160    1       38.043895120445      20.008380487570      33.042703187279
      3161    1       40.052508188805      20.005515849805      30.044093192448
      3162    1       42.055149507759      22.007260453351      30.045269827878
      3163    1       40.049780820688      22.009275683734      33.048708071318
      3164    1       42.040066933888      20.004257564620      33.035458471968
      3165    1       44.041579448213      20.002515985472      30.031399739813
      3166    1       46.041203674074      22.004273925348      30.030316151305
      3167    1       44.042134987157      22.005722440989      33.036380887055
      3168    1       46.033485973227      20.002373652295      33.026773731447
      3169    1        0.038293669895      24.005963845005      29.972637263117
      3170    1        2.041117110999      26.004359920073      29.969789035854
      3171    1        0.033525092215      26.003798470937      32.973949647501
      3172    1        2.041280863407      24.007494647731      32.965723321921
      3173    1        4.052897505410      24.009565236535      29.958341839788
      3174    1        6.055146241671      26.007368406725      29.954810234625
      3175    1        4.042157631884      26.005805238786      32.963658801134
      3176    1        6.051466570365      24.011369577227      32.951543468767
      3177    1        8.070446698561      24.016031049298      29.936234614373
      3178    1       10.068957575902      26.013618290790      29.935068550621
      3179    1        8.049958194407      26.009358906718      32.951173797557
      3180    1       10.059171969098      24.017351267032      32.935304934058
      3181    1       12.084436308399      24.027264851239      29.909410198245
      3182    1       14.074621211865      26.026103096538      29.921579869965
      3183    1       12.053048190811      26.015532011215      32.941652925213
      3184    1       14.059424777514      24.025637399615      32.925599923475
      3185    1       16.084559067597      24.043834908385      29.898007381818
      3186    1       18.069003587943      26.045511579870      29.939484499022
      3187    1       16.048813932945      26.024904373423      32.946713305432
      3188    1       18.051475896055      24.034713221568      32.936705590282
      3189    1       20.073821998194      24.060632174215      29.929585551448
      3190    1       22.064317202431      26.063996673007      29.998263746467
      3191    1       20.041797400353      26.035565816991      32.976222118375
      3192    1       22.043170571641      24.040933052426      32.974082631622
      3193    1       24.067906313797      24.067906313797      29.998180169692
      3194    1       26.070698799484      26.070698799101      30.070769524334
      3195    1       24.040913840877      26.042949967436      33.023591789344
      3196    1       26.042949967437      24.040913840876      33.023591789344
      3197    1       28.073263843603      24.060649217912      30.067430303906
      3198    1       30.085572899591      26.062772345202      30.117646943577
      3199    1       28.049346376341      26.043474144589      33.067255737683
      3200    1       30.050974566388      24.034649670110      33.061683790975
      3201    1       32.083886566044      24.043786818925      30.100586052509
      3202    1       34.094220405796      26.046122247634      30.116756627560
      3203    1       32.060911237824      26.037428077508      33.087286423777
      3204    1       34.058991676278      24.025534267664      33.073717896535
      3205    1       36.084175244648      24.027147688303      30.090438921960
      3206    1       38.085035297315      26.029641689965      30.086687844939
      3207    1       36.065553228981      26.028241840967      33.081271772218
      3208    1       38.058996210183      24.017237349499      33.064610265041
      3209    1       40.070536532790      24.015908262063      30.064004814403
      3210    1       42.066074184919      26.018041157617      30.056753744035
      3211    1       40.060200876893      26.019567391907      33.062822317919
      3212    1       42.051484350097      24.011270926990      33.048579482303
      3213    1       44.053086291991      24.009470177180      30.041889330825
      3214    1       46.048057764037      26.011045349101      30.036456474552
      3215    1       44.049577348931      26.013079261272      33.044567255355
      3216    1       46.041374930932      24.007419639469      33.034419219693
      3217    1        0.031357680335      28.001473064407      29.978202416703
      3218    1        2.030881060807      30.000261529476      29.978208049082
      3219    1        0.026227566562      30.000572482506      32.980372698438
      3220    1        2.033535272663      28.002434053991      32.973216859500
      3221    1        4.041631619542      28.002592109466      29.968593295669
      3222    1        6.038850052690      30.001533424005      29.970397853733
      3223    1        4.031443828070      30.001476289596      32.974512492450
      3224    1        6.040238726103      28.004308635436      32.964410589707
      3225    1        8.052759298478      28.005562430607      29.955706253893
      3226    1       10.045008430519      30.006041121081      29.963489715070
      3227    1        8.035172012179      30.004005118986      32.969276170481
      3228    1       10.044267271261      28.008373897629      32.956844214421
      3229    1       12.059969073932      28.013380547417      29.944911325100
      3230    1       14.045427251933      30.018253622938      29.967596030709
      3231    1       12.035136753470      30.010025587253      32.969747625974
      3232    1       14.042781978221      28.016313325934      32.958552598678
      3233    1       16.058429245672      28.030141065116      29.953446982245
      3234    1       18.041959170256      30.041263518227      29.998847155492
      3235    1       16.031229252301      30.021372023410      32.984492221723
      3236    1       18.037387736099      28.028481534489      32.979995976857
      3237    1       20.054551133983      28.053976703065      29.998503345833
      3238    1       22.045756390755      30.068235855594      30.057965305115
      3239    1       20.028780361861      30.036885869064      33.018209193660
      3240    1       22.035732202295      28.041403204918      33.021644592667
      3241    1       24.060649222794      28.073263838928      30.067430306795
      3242    1       26.062772305576      30.085572975060      30.117646876268
      3243    1       24.034649673331      30.050974564055      33.061683793048
      3244    1       26.043474143998      28.049346376489      33.067255737761
      3245    1       28.077998233537      28.077998195499      30.123830459076
      3246    1       30.084971093107      30.084970927870      30.144074487877
      3247    1       28.048907253693      30.057371287986      33.095110920123
      3248    1       30.057371292978      28.048907258697      33.095110912200
      3249    1       32.094802007099      28.067155330722      30.136670510033
      3250    1       34.095036590205      30.068359949021      30.127346532892
      3251    1       32.063159944793      30.053748265417      33.103698074499
      3252    1       34.067301122734      28.041185490335      33.095468618188
      3253    1       36.094472684361      28.048098040740      30.109744093473
      3254    1       38.085647001272      30.046771258507      30.091063978611
      3255    1       36.067987638580      30.043140237604      33.089823438524
      3256    1       38.066347868346      28.030557254869      33.077465235655
      3257    1       40.077988336283      28.030660451141      30.074009060798
      3258    1       42.066930475023      30.029486174678      30.059361727138
      3259    1       40.062205638022      30.031081870624      33.067483486710
      3260    1       42.057040273291      28.021034467044      33.056021099008
      3261    1       44.058090691075      28.018824666001      30.047334131593
      3262    1       46.049091909099      30.018298556003      30.038299430211
      3263    1       44.051237932393      30.021190640086      33.047427331106
      3264    1       46.045329429200      28.014089160658      33.038826140899
      3265    1        0.022809099786      31.999277123310      29.984727033238
      3266    1        2.020382547014      33.999227097797      29.986539280320
      3267    1        0.018487210821      33.999452409178      32.986953959632
      3268    1        2.024178018925      32.000061546924      32.981817570192
      3269    1        4.028152580619      31.999812630273      29.980187176202
      3270    1        6.023165006027      34.000921553660      29.984631182631
      3271    1        4.020586195942      34.000515864243      32.985023078144
      3272    1        6.027108456034      32.001650840840      32.978522775356
      3273    1        8.032507740748      32.002461341287      29.976354136466
      3274    1       10.023597389951      34.006509257098      29.986601635818
      3275    1        8.021004107933      34.003675483432      32.985448386039
      3276    1       10.027543965608      32.006014667898      32.978816273395
      3277    1       12.033247805751      32.010742922969      29.978890180469
      3278    1       14.020758644583      34.020206188857      29.999481706099
      3279    1       12.018921842234      34.010982143380      32.992191290204
      3280    1       14.024735692805      32.015416933000      32.988752976075
      3281    1       16.030055766752      32.029386618973      29.999199715559
      3282    1       18.018648788912      34.044665624837      30.031033849785
      3283    1       16.015771776642      34.024252158714      33.010235750099
      3284    1       18.021731211487      32.030702296106      33.014115402842
      3285    1       20.030512616048      32.057594180339      30.044595441897
      3286    1       22.026150166411      34.073946693812      30.077330317994
      3287    1       20.016450308719      34.042229184150      33.040379258869
      3288    1       22.024964531967      32.048252109043      33.051926797437
      3289    1       24.043787083277      32.083886473447      30.100586217028
      3290    1       26.046122297464      34.094220537429      30.116756100397
      3291    1       24.025534305516      34.058991666636      33.073717917351
      3292    1       26.037428079784      32.060911249946      33.087286405950
      3293    1       28.067155077653      32.094802058497      30.136670674627
      3294    1       30.068359968711      34.095036530628      30.127346810313
      3295    1       28.041185458162      34.067301138020      33.095468614062
      3296    1       30.053748267209      32.063159928491      33.103698099530
      3297    1       32.085565822943      32.085565727918      30.133965417194
      3298    1       34.078285975420      34.078286047837      30.108727989823
      3299    1       32.055167007020      34.064091628409      33.096966880921
      3300    1       34.064091641765      32.055166996836      33.096966866662
      3301    1       36.086093001004      32.063941146573      30.103913910725
      3302    1       38.072476915142      34.055635950337      30.079199795400
      3303    1       36.060216575512      34.052598085081      33.082418346329
      3304    1       38.063541611506      32.042201867269      33.076982083040
      3305    1       40.072383237362      32.042379640001      30.070799450056
      3306    1       42.058767692891      34.036553418427      30.053668659229
      3307    1       40.056103392728      34.038912129204      33.062531928531
      3308    1       42.055194530915      32.029754326592      33.055773104001
      3309    1       44.055224294936      32.026788817535      30.046331884980
      3310    1       46.044677949954      34.023460056901      30.035948573342
      3311    1       44.047260874663      34.027200526688      33.044873102258
      3312    1       46.044430877789      32.020248003899      33.039033488474
      3313    1        0.014876993989      35.999135980151      29.990653916338
      3314    1        2.011971453245      38.000137609784      29.993076000669
      3315    1        0.011833558340      37.999869428313      32.992486691447
      3316    1        2.015578192171      36.000033682988      32.989469191796
      3317    1        4.016554516113      36.000330523023      29.989818427368
      3318    1        6.011833194475      38.002891597278      29.994433832853
      3319    1        4.011921801261      38.001636880195      32.993084850142
      3320    1        6.015829220404      36.002367716981      32.990019422822
      3321    1        8.016639057666      36.004194288068      29.991457721856
      3322    1       10.009910868290      38.009608746795      29.999793107192
      3323    1        8.010654501979      38.005765917381      32.996386799769
      3324    1       10.014225278021      36.007883243486      32.994685295239
      3325    1       12.014250562602      36.013833318414      29.999673325022
      3326    1       14.006790798442      38.023139069319      30.012816992164
      3327    1       12.008137029448      38.013906648731      33.004834827710
      3328    1       14.011293273724      36.018517637568      33.007105195078
      3329    1       16.011093688138      36.032634472326      30.020206713048
      3330    1       18.006157916187      38.044514970659      30.035938689988
      3331    1       16.006184014196      38.027137259973      33.020615971177
      3332    1       18.010194769593      36.034644968336      33.029459164340
      3333    1       20.013477196617      36.059367649055      30.054286410809
      3334    1       22.013532439062      38.068696328720      30.064743457591
      3335    1       20.008380418194      38.043895100708      33.042703214697
      3336    1       22.015492724073      36.052633097282      33.057781405817
      3337    1       24.027148258049      36.084175224531      30.090439020734
      3338    1       26.029641669554      38.085035233414      30.086687328655
      3339    1       24.017237411869      38.058996208170      33.064610275283
      3340    1       26.028241858067      36.065553239270      33.081271714241
      3341    1       28.048097715573      36.094472813728      30.109744092485
      3342    1       30.046771268446      38.085647074653      30.091064270703
      3343    1       28.030557218814      38.066347881086      33.077465211584
      3344    1       30.043140223125      36.067987641761      33.089823471483
      3345    1       32.063941262317      36.086092892887      30.103913862046
      3346    1       34.055635963997      38.072476823261      30.079199639767
      3347    1       32.042201881467      38.063541604192      33.076982102342
      3348    1       34.052598085677      36.060216572148      33.082418337382
      3349    1       36.066513399659      36.066513503657      30.082308514338
      3350    1       38.054113453025      38.054113519078      30.060813814324
      3351    1       36.047288537217      38.053380571444      33.066346678893
      3352    1       38.053380569727      36.047288546654      33.066346694643
      3353    1       40.058526550816      36.046257574517      30.058904616802
      3354    1       42.046407355023      38.037593355295      30.043844377679
      3355    1       40.045572455684      38.040874249032      33.052057813968
      3356    1       42.047764889195      36.034405728738      33.049490489354
      3357    1       44.046847261091      36.030649708643      30.040607517458
      3358    1       46.037167030319      38.025358541563      30.031043830740
      3359    1       44.039842653743      38.029636095352      33.038852941803
      3360    1       46.039644923114      36.024110080556      33.035746803176
      3361    1        0.008797119604      40.000096660421      29.995156767377
      3362    1        2.006300286464      42.001616861687      29.997416128146
      3363    1        0.006918828776      42.000955311911      32.996499068113
      3364    1        2.009035940981      40.001214377084      32.995128022667
      3365    1        4.008552363857      40.002113743193      29.996265681318
      3366    1        6.005132617292      42.004977833268      29.999910499958
      3367    1        4.006103610155      42.003301387077      32.998261644758
      3368    1        6.008022228734      40.004314033919      32.997516094398
      3369    1        8.007045366921      40.006829436066      29.999865962405
      3370    1       10.003051793830      42.011597635735      30.005318481130
      3371    1        8.004466842196      42.007839146928      33.002258722005
      3372    1       10.005964751746      40.010411288894      33.003286259599
      3373    1       12.004408961013      40.016308688171      30.008166550951
      3374    1       14.001026350289      42.022878031741      30.015091634696
      3375    1       12.002496021841      42.015583301442      33.009700958773
      3376    1       14.003827498408      40.020683482545      33.014152553032
      3377    1       16.002578003734      40.032125066553      30.023246655196
      3378    1       18.001521537227      42.038624423724      30.029417579792
      3379    1       16.001700930240      42.026849239591      33.021210008723
      3380    1       18.004040590510      40.034855249363      33.030372188313
      3381    1       20.005515617825      40.052508239383      30.044093524630
      3382    1       22.007260596265      42.055149597251      30.045270011383
      3383    1       20.004257542798      42.040066941578      33.035458522556
      3384    1       22.009275704822      40.049780829204      33.048708142838
      3385    1       24.015908572786      40.070536493227      30.064004705363
      3386    1       26.018041129960      42.066074090626      30.056753517416
      3387    1       24.011270966956      42.051484346791      33.048579471982
      3388    1       26.019567401055      40.060200870201      33.062822259971
      3389    1       28.030660221839      40.077988384991      30.074009002152
      3390    1       30.029486120538      42.066930558258      30.059361844483
      3391    1       28.021034440372      42.057040274886      33.056021077368
      3392    1       30.031081853812      40.062205650166      33.067483512571
      3393    1       32.042379767330      40.072383227437      30.070799569137
      3394    1       34.036553490083      42.058767656113      30.053668666851
      3395    1       32.029754334489      42.055194536251      33.055773128361
      3396    1       34.038912143354      40.056103381219      33.062531924373
      3397    1       36.046257543853      40.058526499990      30.058904516615
      3398    1       38.037593328800      42.046407333005      30.043844332678
      3399    1       36.034405733856      42.047764879453      33.049490478612
      3400    1       38.040874238451      40.045572458174      33.052057802554
      3401    1       40.043169374815      40.043169406837      30.045008147823
      3402    1       42.034268850560      42.034268864499      30.033791284014
      3403    1       40.034525103751      42.038089358680      33.040555533803
      3404    1       42.038089356823      40.034525111208      33.040555539920
      3405    1       44.036652416311      40.030308086268      30.033071182096
      3406    1       46.029060548287      42.024447889964      30.025408906577
      3407    1       44.031523388023      42.028830181783      33.031713580262
      3408    1       46.032922564395      40.025162229919      33.030581985363
      3409    1        0.004732700346      44.001279097875      29.998158221658
      3410    1        2.002921750200      46.002839292696      29.999956159699
      3411    1        0.003675944417      46.002052390294      32.999092985510
      3412    1        2.004704242404      44.002579264544      32.998757782635
      3413    1        4.003829876097      44.003717709626      29.999938308196
      3414    1        6.001705664287      46.006178393030      30.002466935788
      3415    1        4.002668564367      46.004600517796      33.001129268369
      3416    1        6.003418104570      44.005966115166      33.001580506438
      3417    1        8.002232741300      44.008383828650      30.003566574812
      3418    1       10.000209873760      46.011815414615      30.006786651030
      3419    1        8.001298231304      46.008895227945      33.004730733187
      3420    1       10.001741520549      44.011735537595      33.006717775632
      3421    1       12.000419036926      44.016342599915      30.009987871382
      3422    1       13.999250239016      46.020228364403      30.013337231878
      3423    1       12.000085918089      46.015416432822      33.010381120339
      3424    1       14.000570169897      44.020379751762      33.014776514030
      3425    1       15.999823918172      44.027962002748      30.019657943110
      3426    1       18.000216403183      46.030804075034      30.021747378786
      3427    1       16.000057265780      46.024039474585      33.018070542667
      3428    1       18.001452484454      44.031285876165      33.025361192242
      3429    1       20.002515970624      44.041579520508      30.031399870632
      3430    1       22.004273980743      46.041203696430      30.030316179477
      3431    1       20.002373652551      46.033485983768      33.026773754272
      3432    1       22.005722462909      44.042134997250      33.036380912254
      3433    1       24.009470273488      44.053086252655      30.041889264386
      3434    1       26.011045340973      46.048057719332      30.036456407653
      3435    1       24.007419655883      46.041374926310      33.034419210315
      3436    1       26.013079263342      44.049577337638      33.044567223298
      3437    1       28.018824575781      44.058090683732      30.047334083777
      3438    1       30.018298520965      46.049091934914      30.038299450002
      3439    1       28.014089147935      46.045329425983      33.038826128422
      3440    1       30.021190625075      44.051237941498      33.047427340475
      3441    1       32.026788842972      44.055224335540      30.046331956317
      3442    1       34.023460082387      46.044677959492      30.035948597503
      3443    1       32.020248002917      46.044430885176      33.039033500590
      3444    1       34.027200538060      44.047260873764      33.044873111691
      3445    1       36.030649732474      44.046847233493      30.040607503540
      3446    1       38.025358546757      46.037167015594      30.031043820469
      3447    1       36.024110087370      46.039644920170      33.035746804547
      3448    1       38.029636095387      44.039842647630      33.038852933617
      3449    1       40.030308071446      44.036652407914      30.033071164457
      3450    1       42.024447882820      46.029060545277      30.025408899961
      3451    1       40.025162228637      46.032922561149      33.030581980746
      3452    1       42.028830177481      44.031523389158      33.031713577407
      3453    1       44.027289782103      44.027289787961      30.025865833985
      3454    1       46.021890868546      46.021890871010      30.020208731569
      3455    1       44.023980907063      46.026022795625      33.025039234322
      3456    1       46.026022794989      44.023980909316      33.025039235574
